p cnf 5067 19330
1 -2 0
3 -4 0
3 -5 0
1 3 -6 0
-7 6 -8 0
7 -6 -8 0
8 -6 -7 0
8 6 7 0
-8 0
-1 9 0
-7 9 0
1 7 -9 0
10 -9 0
-10 9 0
-1 -7 0
-3 11 0
-10 11 0
3 10 -11 0
12 -11 0
-12 11 0
-3 -10 0
13 -14 0
15 -16 0
15 -17 0
13 15 -18 0
-19 18 -20 0
19 -18 -20 0
20 -18 -19 0
20 18 19 0
-20 0
-13 21 0
-19 21 0
13 19 -21 0
22 -21 0
-22 21 0
-13 -19 0
-15 23 0
-22 23 0
15 22 -23 0
24 -23 0
-24 23 0
-15 -22 0
25 -26 0
27 -28 0
27 -29 0
25 27 -30 0
-31 30 -32 0
31 -30 -32 0
32 -30 -31 0
32 30 31 0
-32 0
-25 33 0
-31 33 0
25 31 -33 0
34 -33 0
-34 33 0
-25 -31 0
-27 35 0
-34 35 0
27 34 -35 0
36 -35 0
-36 35 0
-27 -34 0
37 -38 0
39 -40 0
39 -41 0
37 39 -42 0
-43 42 -44 0
43 -42 -44 0
44 -42 -43 0
44 42 43 0
-44 0
-37 45 0
-43 45 0
37 43 -45 0
46 -45 0
-46 45 0
-37 -43 0
-39 47 0
-46 47 0
39 46 -47 0
48 -47 0
-48 47 0
-39 -46 0
49 -50 0
51 -52 0
51 -53 0
49 51 -54 0
-55 54 -56 0
55 -54 -56 0
56 -54 -55 0
56 54 55 0
-56 0
-49 57 0
-55 57 0
49 55 -57 0
58 -57 0
-58 57 0
-49 -55 0
-51 59 0
-58 59 0
51 58 -59 0
60 -59 0
-60 59 0
-51 -58 0
61 -62 0
63 -64 0
63 -65 0
61 63 -66 0
-67 66 -68 0
67 -66 -68 0
68 -66 -67 0
68 66 67 0
-68 0
-61 69 0
-67 69 0
61 67 -69 0
70 -69 0
-70 69 0
-61 -67 0
-63 71 0
-70 71 0
63 70 -71 0
72 -71 0
-72 71 0
-63 -70 0
73 -74 0
75 -76 0
75 -77 0
73 75 -78 0
-79 78 -80 0
79 -78 -80 0
80 -78 -79 0
80 78 79 0
-80 0
-73 81 0
-79 81 0
73 79 -81 0
82 -81 0
-82 81 0
-73 -79 0
-75 83 0
-82 83 0
75 82 -83 0
84 -83 0
-84 83 0
-75 -82 0
85 -86 0
87 -88 0
87 -89 0
85 87 -90 0
-91 90 -92 0
91 -90 -92 0
92 -90 -91 0
92 90 91 0
-92 0
-85 93 0
-91 93 0
85 91 -93 0
94 -93 0
-94 93 0
-85 -91 0
-87 95 0
-94 95 0
87 94 -95 0
96 -95 0
-96 95 0
-87 -94 0
97 -98 0
99 -100 0
99 -101 0
97 99 -102 0
-103 102 -104 0
103 -102 -104 0
104 -102 -103 0
104 102 103 0
-104 0
-97 105 0
-103 105 0
97 103 -105 0
106 -105 0
-106 105 0
-97 -103 0
-99 107 0
-106 107 0
99 106 -107 0
108 -107 0
-108 107 0
-99 -106 0
109 -110 0
111 -112 0
111 -113 0
109 111 -114 0
-115 114 -116 0
115 -114 -116 0
116 -114 -115 0
116 114 115 0
-116 0
-109 117 0
-115 117 0
109 115 -117 0
118 -117 0
-118 117 0
-109 -115 0
-111 119 0
-118 119 0
111 118 -119 0
120 -119 0
-120 119 0
-111 -118 0
121 -122 0
123 -124 0
123 -125 0
121 123 -126 0
-127 126 -128 0
127 -126 -128 0
128 -126 -127 0
128 126 127 0
-128 0
-121 129 0
-127 129 0
121 127 -129 0
130 -129 0
-130 129 0
-121 -127 0
-123 131 0
-130 131 0
123 130 -131 0
132 -131 0
-132 131 0
-123 -130 0
133 -134 0
135 -136 0
135 -137 0
133 135 -138 0
-139 138 -140 0
139 -138 -140 0
140 -138 -139 0
140 138 139 0
-140 0
-133 141 0
-139 141 0
133 139 -141 0
142 -141 0
-142 141 0
-133 -139 0
-135 143 0
-142 143 0
135 142 -143 0
144 -143 0
-144 143 0
-135 -142 0
145 -146 0
147 -148 0
147 -149 0
145 147 -150 0
-151 150 -152 0
151 -150 -152 0
152 -150 -151 0
152 150 151 0
-152 0
-145 153 0
-151 153 0
145 151 -153 0
154 -153 0
-154 153 0
-145 -151 0
-147 155 0
-154 155 0
147 154 -155 0
156 -155 0
-156 155 0
-147 -154 0
157 -158 0
159 -160 0
159 -161 0
157 159 -162 0
-163 162 -164 0
163 -162 -164 0
164 -162 -163 0
164 162 163 0
-164 0
-157 165 0
-163 165 0
157 163 -165 0
166 -165 0
-166 165 0
-157 -163 0
-159 167 0
-166 167 0
159 166 -167 0
168 -167 0
-168 167 0
-159 -166 0
169 -170 0
171 -172 0
171 -173 0
169 171 -174 0
-175 174 -176 0
175 -174 -176 0
176 -174 -175 0
176 174 175 0
-176 0
-169 177 0
-175 177 0
169 175 -177 0
178 -177 0
-178 177 0
-169 -175 0
-171 179 0
-178 179 0
171 178 -179 0
180 -179 0
-180 179 0
-171 -178 0
181 -182 0
183 -184 0
183 -185 0
181 183 -186 0
-187 186 -188 0
187 -186 -188 0
188 -186 -187 0
188 186 187 0
-188 0
-181 189 0
-187 189 0
181 187 -189 0
190 -189 0
-190 189 0
-181 -187 0
-183 191 0
-190 191 0
183 190 -191 0
192 -191 0
-192 191 0
-183 -190 0
193 -194 0
195 -196 0
195 -197 0
193 195 -198 0
-199 198 -200 0
199 -198 -200 0
200 -198 -199 0
200 198 199 0
-200 0
-193 201 0
-199 201 0
193 199 -201 0
202 -201 0
-202 201 0
-193 -199 0
-195 203 0
-202 203 0
195 202 -203 0
204 -203 0
-204 203 0
-195 -202 0
205 -206 0
207 -208 0
207 -209 0
205 207 -210 0
-211 210 -212 0
211 -210 -212 0
212 -210 -211 0
212 210 211 0
-212 0
-205 213 0
-211 213 0
205 211 -213 0
214 -213 0
-214 213 0
-205 -211 0
-207 215 0
-214 215 0
207 214 -215 0
216 -215 0
-216 215 0
-207 -214 0
217 -218 0
219 -220 0
219 -221 0
217 219 -222 0
-223 222 -224 0
223 -222 -224 0
224 -222 -223 0
224 222 223 0
-224 0
-217 225 0
-223 225 0
217 223 -225 0
226 -225 0
-226 225 0
-217 -223 0
-219 227 0
-226 227 0
219 226 -227 0
228 -227 0
-228 227 0
-219 -226 0
229 -230 0
231 -232 0
231 -233 0
229 231 -234 0
-235 234 -236 0
235 -234 -236 0
236 -234 -235 0
236 234 235 0
-236 0
-229 237 0
-235 237 0
229 235 -237 0
238 -237 0
-238 237 0
-229 -235 0
-231 239 0
-238 239 0
231 238 -239 0
240 -239 0
-240 239 0
-231 -238 0
241 -242 0
243 -244 0
243 -245 0
241 243 -246 0
-247 246 -248 0
247 -246 -248 0
248 -246 -247 0
248 246 247 0
-248 0
-241 249 0
-247 249 0
241 247 -249 0
250 -249 0
-250 249 0
-241 -247 0
-243 251 0
-250 251 0
243 250 -251 0
252 -251 0
-252 251 0
-243 -250 0
253 -254 0
255 -256 0
255 -257 0
253 255 -258 0
-259 258 -260 0
259 -258 -260 0
260 -258 -259 0
260 258 259 0
-260 0
-253 261 0
-259 261 0
253 259 -261 0
262 -261 0
-262 261 0
-253 -259 0
-255 263 0
-262 263 0
255 262 -263 0
264 -263 0
-264 263 0
-255 -262 0
265 -266 0
267 -268 0
267 -269 0
265 267 -270 0
-271 270 -272 0
271 -270 -272 0
272 -270 -271 0
272 270 271 0
-272 0
-265 273 0
-271 273 0
265 271 -273 0
274 -273 0
-274 273 0
-265 -271 0
-267 275 0
-274 275 0
267 274 -275 0
276 -275 0
-276 275 0
-267 -274 0
277 -278 0
279 -280 0
279 -281 0
277 279 -282 0
-283 282 -284 0
283 -282 -284 0
284 -282 -283 0
284 282 283 0
-284 0
-277 285 0
-283 285 0
277 283 -285 0
286 -285 0
-286 285 0
-277 -283 0
-279 287 0
-286 287 0
279 286 -287 0
288 -287 0
-288 287 0
-279 -286 0
289 -290 0
291 -292 0
291 -293 0
289 291 -294 0
-295 294 -296 0
295 -294 -296 0
296 -294 -295 0
296 294 295 0
-296 0
-289 297 0
-295 297 0
289 295 -297 0
298 -297 0
-298 297 0
-289 -295 0
-291 299 0
-298 299 0
291 298 -299 0
300 -299 0
-300 299 0
-291 -298 0
301 -302 0
303 -304 0
303 -305 0
301 303 -306 0
-307 306 -308 0
307 -306 -308 0
308 -306 -307 0
308 306 307 0
-308 0
-301 309 0
-307 309 0
301 307 -309 0
310 -309 0
-310 309 0
-301 -307 0
-303 311 0
-310 311 0
303 310 -311 0
312 -311 0
-312 311 0
-303 -310 0
313 -314 0
315 -316 0
315 -317 0
313 315 -318 0
-319 318 -320 0
319 -318 -320 0
320 -318 -319 0
320 318 319 0
-320 0
-313 321 0
-319 321 0
313 319 -321 0
322 -321 0
-322 321 0
-313 -319 0
-315 323 0
-322 323 0
315 322 -323 0
324 -323 0
-324 323 0
-315 -322 0
325 -326 0
327 -328 0
327 -329 0
325 327 -330 0
-331 330 -332 0
331 -330 -332 0
332 -330 -331 0
332 330 331 0
-332 0
-325 333 0
-331 333 0
325 331 -333 0
334 -333 0
-334 333 0
-325 -331 0
-327 335 0
-334 335 0
327 334 -335 0
336 -335 0
-336 335 0
-327 -334 0
337 -338 0
339 -340 0
339 -341 0
337 339 -342 0
-343 342 -344 0
343 -342 -344 0
344 -342 -343 0
344 342 343 0
-344 0
-337 345 0
-343 345 0
337 343 -345 0
346 -345 0
-346 345 0
-337 -343 0
-339 347 0
-346 347 0
339 346 -347 0
348 -347 0
-348 347 0
-339 -346 0
349 -350 0
351 -352 0
351 -353 0
349 351 -354 0
-355 354 -356 0
355 -354 -356 0
356 -354 -355 0
356 354 355 0
-356 0
-349 357 0
-355 357 0
349 355 -357 0
358 -357 0
-358 357 0
-349 -355 0
-351 359 0
-358 359 0
351 358 -359 0
360 -359 0
-360 359 0
-351 -358 0
361 -362 0
363 -364 0
363 -365 0
361 363 -366 0
-367 366 -368 0
367 -366 -368 0
368 -366 -367 0
368 366 367 0
-368 0
-361 369 0
-367 369 0
361 367 -369 0
370 -369 0
-370 369 0
-361 -367 0
-363 371 0
-370 371 0
363 370 -371 0
372 -371 0
-372 371 0
-363 -370 0
373 -374 0
375 -376 0
375 -377 0
373 375 -378 0
-379 378 -380 0
379 -378 -380 0
380 -378 -379 0
380 378 379 0
-380 0
-373 381 0
-379 381 0
373 379 -381 0
382 -381 0
-382 381 0
-373 -379 0
-375 383 0
-382 383 0
375 382 -383 0
384 -383 0
-384 383 0
-375 -382 0
385 -386 0
387 -388 0
387 -389 0
385 387 -390 0
-391 390 -392 0
391 -390 -392 0
392 -390 -391 0
392 390 391 0
-392 0
-385 393 0
-391 393 0
385 391 -393 0
394 -393 0
-394 393 0
-385 -391 0
-387 395 0
-394 395 0
387 394 -395 0
396 -395 0
-396 395 0
-387 -394 0
397 -398 0
399 -400 0
399 -401 0
397 399 -402 0
-403 402 -404 0
403 -402 -404 0
404 -402 -403 0
404 402 403 0
-404 0
-397 405 0
-403 405 0
397 403 -405 0
406 -405 0
-406 405 0
-397 -403 0
-399 407 0
-406 407 0
399 406 -407 0
408 -407 0
-408 407 0
-399 -406 0
409 -410 0
411 -412 0
411 -413 0
409 411 -414 0
-415 414 -416 0
415 -414 -416 0
416 -414 -415 0
416 414 415 0
-416 0
-409 417 0
-415 417 0
409 415 -417 0
418 -417 0
-418 417 0
-409 -415 0
-411 419 0
-418 419 0
411 418 -419 0
420 -419 0
-420 419 0
-411 -418 0
421 -422 0
423 -424 0
423 -425 0
421 423 -426 0
-427 426 -428 0
427 -426 -428 0
428 -426 -427 0
428 426 427 0
-428 0
-421 429 0
-427 429 0
421 427 -429 0
430 -429 0
-430 429 0
-421 -427 0
-423 431 0
-430 431 0
423 430 -431 0
432 -431 0
-432 431 0
-423 -430 0
433 -434 0
435 -436 0
435 -437 0
433 435 -438 0
-439 438 -440 0
439 -438 -440 0
440 -438 -439 0
440 438 439 0
-440 0
-433 441 0
-439 441 0
433 439 -441 0
442 -441 0
-442 441 0
-433 -439 0
-435 443 0
-442 443 0
435 442 -443 0
444 -443 0
-444 443 0
-435 -442 0
445 -446 0
447 -448 0
447 -449 0
445 447 -450 0
-451 450 -452 0
451 -450 -452 0
452 -450 -451 0
452 450 451 0
-452 0
-445 453 0
-451 453 0
445 451 -453 0
454 -453 0
-454 453 0
-445 -451 0
-447 455 0
-454 455 0
447 454 -455 0
456 -455 0
-456 455 0
-447 -454 0
457 -458 0
459 -460 0
459 -461 0
457 459 -462 0
-463 462 -464 0
463 -462 -464 0
464 -462 -463 0
464 462 463 0
-464 0
-457 465 0
-463 465 0
457 463 -465 0
466 -465 0
-466 465 0
-457 -463 0
-459 467 0
-466 467 0
459 466 -467 0
468 -467 0
-468 467 0
-459 -466 0
469 -470 0
471 -472 0
471 -473 0
469 471 -474 0
-475 474 -476 0
475 -474 -476 0
476 -474 -475 0
476 474 475 0
-476 0
-469 477 0
-475 477 0
469 475 -477 0
478 -477 0
-478 477 0
-469 -475 0
-471 479 0
-478 479 0
471 478 -479 0
480 -479 0
-480 479 0
-471 -478 0
481 -482 0
483 -484 0
483 -485 0
481 483 -486 0
-487 486 -488 0
487 -486 -488 0
488 -486 -487 0
488 486 487 0
-488 0
-481 489 0
-487 489 0
481 487 -489 0
490 -489 0
-490 489 0
-481 -487 0
-483 491 0
-490 491 0
483 490 -491 0
492 -491 0
-492 491 0
-483 -490 0
493 -494 0
495 -496 0
495 -497 0
493 495 -498 0
-499 498 -500 0
499 -498 -500 0
500 -498 -499 0
500 498 499 0
-500 0
-493 501 0
-499 501 0
493 499 -501 0
502 -501 0
-502 501 0
-493 -499 0
-495 503 0
-502 503 0
495 502 -503 0
504 -503 0
-504 503 0
-495 -502 0
505 -506 0
507 -508 0
507 -509 0
505 507 -510 0
-511 510 -512 0
511 -510 -512 0
512 -510 -511 0
512 510 511 0
-512 0
-505 513 0
-511 513 0
505 511 -513 0
514 -513 0
-514 513 0
-505 -511 0
-507 515 0
-514 515 0
507 514 -515 0
516 -515 0
-516 515 0
-507 -514 0
517 -518 0
519 -520 0
519 -521 0
517 519 -522 0
-523 522 -524 0
523 -522 -524 0
524 -522 -523 0
524 522 523 0
-524 0
-517 525 0
-523 525 0
517 523 -525 0
526 -525 0
-526 525 0
-517 -523 0
-519 527 0
-526 527 0
519 526 -527 0
528 -527 0
-528 527 0
-519 -526 0
529 -530 0
531 -532 0
531 -533 0
529 531 -534 0
-535 534 -536 0
535 -534 -536 0
536 -534 -535 0
536 534 535 0
-536 0
-529 537 0
-535 537 0
529 535 -537 0
538 -537 0
-538 537 0
-529 -535 0
-531 539 0
-538 539 0
531 538 -539 0
540 -539 0
-540 539 0
-531 -538 0
541 -542 0
543 -544 0
543 -545 0
541 543 -546 0
-547 546 -548 0
547 -546 -548 0
548 -546 -547 0
548 546 547 0
-548 0
-541 549 0
-547 549 0
541 547 -549 0
550 -549 0
-550 549 0
-541 -547 0
-543 551 0
-550 551 0
543 550 -551 0
552 -551 0
-552 551 0
-543 -550 0
553 -554 0
555 -556 0
555 -557 0
553 555 -558 0
-559 558 -560 0
559 -558 -560 0
560 -558 -559 0
560 558 559 0
-560 0
-553 561 0
-559 561 0
553 559 -561 0
562 -561 0
-562 561 0
-553 -559 0
-555 563 0
-562 563 0
555 562 -563 0
564 -563 0
-564 563 0
-555 -562 0
565 -566 0
567 -568 0
567 -569 0
565 567 -570 0
-571 570 -572 0
571 -570 -572 0
572 -570 -571 0
572 570 571 0
-572 0
-565 573 0
-571 573 0
565 571 -573 0
574 -573 0
-574 573 0
-565 -571 0
-567 575 0
-574 575 0
567 574 -575 0
576 -575 0
-576 575 0
-567 -574 0
577 -578 0
579 -580 0
579 -581 0
577 579 -582 0
-583 582 -584 0
583 -582 -584 0
584 -582 -583 0
584 582 583 0
-584 0
-577 585 0
-583 585 0
577 583 -585 0
586 -585 0
-586 585 0
-577 -583 0
-579 587 0
-586 587 0
579 586 -587 0
588 -587 0
-588 587 0
-579 -586 0
589 -590 0
591 -592 0
591 -593 0
589 591 -594 0
-595 594 -596 0
595 -594 -596 0
596 -594 -595 0
596 594 595 0
-596 0
-589 597 0
-595 597 0
589 595 -597 0
598 -597 0
-598 597 0
-589 -595 0
-591 599 0
-598 599 0
591 598 -599 0
600 -599 0
-600 599 0
-591 -598 0
601 -602 0
603 -604 0
603 -605 0
601 603 -606 0
-607 606 -608 0
607 -606 -608 0
608 -606 -607 0
608 606 607 0
-608 0
-601 609 0
-607 609 0
601 607 -609 0
610 -609 0
-610 609 0
-601 -607 0
-603 611 0
-610 611 0
603 610 -611 0
612 -611 0
-612 611 0
-603 -610 0
613 -614 0
615 -616 0
615 -617 0
613 615 -618 0
-619 618 -620 0
619 -618 -620 0
620 -618 -619 0
620 618 619 0
-620 0
-613 621 0
-619 621 0
613 619 -621 0
622 -621 0
-622 621 0
-613 -619 0
-615 623 0
-622 623 0
615 622 -623 0
624 -623 0
-624 623 0
-615 -622 0
625 -626 0
627 -628 0
627 -629 0
625 627 -630 0
-631 630 -632 0
631 -630 -632 0
632 -630 -631 0
632 630 631 0
-632 0
-625 633 0
-631 633 0
625 631 -633 0
634 -633 0
-634 633 0
-625 -631 0
-627 635 0
-634 635 0
627 634 -635 0
636 -635 0
-636 635 0
-627 -634 0
637 -638 0
639 -640 0
639 -641 0
637 639 -642 0
-643 642 -644 0
643 -642 -644 0
644 -642 -643 0
644 642 643 0
-644 0
-637 645 0
-643 645 0
637 643 -645 0
646 -645 0
-646 645 0
-637 -643 0
-639 647 0
-646 647 0
639 646 -647 0
648 -647 0
-648 647 0
-639 -646 0
649 -650 0
651 -652 0
651 -653 0
649 651 -654 0
-655 654 -656 0
655 -654 -656 0
656 -654 -655 0
656 654 655 0
-656 0
-649 657 0
-655 657 0
649 655 -657 0
658 -657 0
-658 657 0
-649 -655 0
-651 659 0
-658 659 0
651 658 -659 0
660 -659 0
-660 659 0
-651 -658 0
661 -662 0
663 -664 0
663 -665 0
661 663 -666 0
-667 666 -668 0
667 -666 -668 0
668 -666 -667 0
668 666 667 0
-668 0
-661 669 0
-667 669 0
661 667 -669 0
670 -669 0
-670 669 0
-661 -667 0
-663 671 0
-670 671 0
663 670 -671 0
672 -671 0
-672 671 0
-663 -670 0
673 -674 0
675 -676 0
675 -677 0
673 675 -678 0
-679 678 -680 0
679 -678 -680 0
680 -678 -679 0
680 678 679 0
-680 0
-673 681 0
-679 681 0
673 679 -681 0
682 -681 0
-682 681 0
-673 -679 0
-675 683 0
-682 683 0
675 682 -683 0
684 -683 0
-684 683 0
-675 -682 0
685 -686 0
687 -688 0
687 -689 0
685 687 -690 0
-691 690 -692 0
691 -690 -692 0
692 -690 -691 0
692 690 691 0
-692 0
-685 693 0
-691 693 0
685 691 -693 0
694 -693 0
-694 693 0
-685 -691 0
-687 695 0
-694 695 0
687 694 -695 0
696 -695 0
-696 695 0
-687 -694 0
697 -698 0
699 -700 0
699 -701 0
697 699 -702 0
-703 702 -704 0
703 -702 -704 0
704 -702 -703 0
704 702 703 0
-704 0
-697 705 0
-703 705 0
697 703 -705 0
706 -705 0
-706 705 0
-697 -703 0
-699 707 0
-706 707 0
699 706 -707 0
708 -707 0
-708 707 0
-699 -706 0
709 -710 0
711 -712 0
711 -713 0
709 711 -714 0
-715 714 -716 0
715 -714 -716 0
716 -714 -715 0
716 714 715 0
-716 0
-709 717 0
-715 717 0
709 715 -717 0
718 -717 0
-718 717 0
-709 -715 0
-711 719 0
-718 719 0
711 718 -719 0
720 -719 0
-720 719 0
-711 -718 0
721 -722 0
723 -724 0
723 -725 0
721 723 -726 0
-727 726 -728 0
727 -726 -728 0
728 -726 -727 0
728 726 727 0
-728 0
-721 729 0
-727 729 0
721 727 -729 0
730 -729 0
-730 729 0
-721 -727 0
-723 731 0
-730 731 0
723 730 -731 0
732 -731 0
-732 731 0
-723 -730 0
733 -734 0
735 -736 0
735 -737 0
733 735 -738 0
-739 738 -740 0
739 -738 -740 0
740 -738 -739 0
740 738 739 0
-740 0
-733 741 0
-739 741 0
733 739 -741 0
742 -741 0
-742 741 0
-733 -739 0
-735 743 0
-742 743 0
735 742 -743 0
744 -743 0
-744 743 0
-735 -742 0
745 -746 0
747 -748 0
747 -749 0
745 747 -750 0
-751 750 -752 0
751 -750 -752 0
752 -750 -751 0
752 750 751 0
-752 0
-745 753 0
-751 753 0
745 751 -753 0
754 -753 0
-754 753 0
-745 -751 0
-747 755 0
-754 755 0
747 754 -755 0
756 -755 0
-756 755 0
-747 -754 0
757 -758 0
759 -760 0
759 -761 0
757 759 -762 0
-763 762 -764 0
763 -762 -764 0
764 -762 -763 0
764 762 763 0
-764 0
-757 765 0
-763 765 0
757 763 -765 0
766 -765 0
-766 765 0
-757 -763 0
-759 767 0
-766 767 0
759 766 -767 0
768 -767 0
-768 767 0
-759 -766 0
769 -770 0
771 -772 0
771 -773 0
769 771 -774 0
-775 774 -776 0
775 -774 -776 0
776 -774 -775 0
776 774 775 0
-776 0
-769 777 0
-775 777 0
769 775 -777 0
778 -777 0
-778 777 0
-769 -775 0
-771 779 0
-778 779 0
771 778 -779 0
780 -779 0
-780 779 0
-771 -778 0
781 -782 0
783 -784 0
783 -785 0
781 783 -786 0
-787 786 -788 0
787 -786 -788 0
788 -786 -787 0
788 786 787 0
-788 0
-781 789 0
-787 789 0
781 787 -789 0
790 -789 0
-790 789 0
-781 -787 0
-783 791 0
-790 791 0
783 790 -791 0
792 -791 0
-792 791 0
-783 -790 0
793 -794 0
795 -796 0
795 -797 0
793 795 -798 0
-799 798 -800 0
799 -798 -800 0
800 -798 -799 0
800 798 799 0
-800 0
-793 801 0
-799 801 0
793 799 -801 0
802 -801 0
-802 801 0
-793 -799 0
-795 803 0
-802 803 0
795 802 -803 0
804 -803 0
-804 803 0
-795 -802 0
805 -806 0
807 -808 0
807 -809 0
805 807 -810 0
-811 810 -812 0
811 -810 -812 0
812 -810 -811 0
812 810 811 0
-812 0
-805 813 0
-811 813 0
805 811 -813 0
814 -813 0
-814 813 0
-805 -811 0
-807 815 0
-814 815 0
807 814 -815 0
816 -815 0
-816 815 0
-807 -814 0
817 -818 0
819 -820 0
819 -821 0
817 819 -822 0
-823 822 -824 0
823 -822 -824 0
824 -822 -823 0
824 822 823 0
-824 0
-817 825 0
-823 825 0
817 823 -825 0
826 -825 0
-826 825 0
-817 -823 0
-819 827 0
-826 827 0
819 826 -827 0
828 -827 0
-828 827 0
-819 -826 0
829 -830 0
831 -832 0
831 -833 0
829 831 -834 0
-835 834 -836 0
835 -834 -836 0
836 -834 -835 0
836 834 835 0
-836 0
-829 837 0
-835 837 0
829 835 -837 0
838 -837 0
-838 837 0
-829 -835 0
-831 839 0
-838 839 0
831 838 -839 0
840 -839 0
-840 839 0
-831 -838 0
841 -842 0
843 -844 0
843 -845 0
841 843 -846 0
-847 846 -848 0
847 -846 -848 0
848 -846 -847 0
848 846 847 0
-848 0
-841 849 0
-847 849 0
841 847 -849 0
850 -849 0
-850 849 0
-841 -847 0
-843 851 0
-850 851 0
843 850 -851 0
852 -851 0
-852 851 0
-843 -850 0
853 -854 0
855 -856 0
855 -857 0
853 855 -858 0
-859 858 -860 0
859 -858 -860 0
860 -858 -859 0
860 858 859 0
-860 0
-853 861 0
-859 861 0
853 859 -861 0
862 -861 0
-862 861 0
-853 -859 0
-855 863 0
-862 863 0
855 862 -863 0
864 -863 0
-864 863 0
-855 -862 0
865 -866 0
867 -868 0
867 -869 0
865 867 -870 0
-871 870 -872 0
871 -870 -872 0
872 -870 -871 0
872 870 871 0
-872 0
-865 873 0
-871 873 0
865 871 -873 0
874 -873 0
-874 873 0
-865 -871 0
-867 875 0
-874 875 0
867 874 -875 0
876 -875 0
-876 875 0
-867 -874 0
877 -878 0
879 -880 0
879 -881 0
877 879 -882 0
-883 882 -884 0
883 -882 -884 0
884 -882 -883 0
884 882 883 0
-884 0
-877 885 0
-883 885 0
877 883 -885 0
886 -885 0
-886 885 0
-877 -883 0
-879 887 0
-886 887 0
879 886 -887 0
888 -887 0
-888 887 0
-879 -886 0
889 -890 0
891 -892 0
891 -893 0
889 891 -894 0
-895 894 -896 0
895 -894 -896 0
896 -894 -895 0
896 894 895 0
-896 0
-889 897 0
-895 897 0
889 895 -897 0
898 -897 0
-898 897 0
-889 -895 0
-891 899 0
-898 899 0
891 898 -899 0
900 -899 0
-900 899 0
-891 -898 0
901 -902 0
903 -904 0
903 -905 0
901 903 -906 0
-907 906 -908 0
907 -906 -908 0
908 -906 -907 0
908 906 907 0
-908 0
-901 909 0
-907 909 0
901 907 -909 0
910 -909 0
-910 909 0
-901 -907 0
-903 911 0
-910 911 0
903 910 -911 0
912 -911 0
-912 911 0
-903 -910 0
913 -914 0
915 -916 0
915 -917 0
913 915 -918 0
-919 918 -920 0
919 -918 -920 0
920 -918 -919 0
920 918 919 0
-920 0
-913 921 0
-919 921 0
913 919 -921 0
922 -921 0
-922 921 0
-913 -919 0
-915 923 0
-922 923 0
915 922 -923 0
924 -923 0
-924 923 0
-915 -922 0
925 -926 0
927 -928 0
927 -929 0
925 927 -930 0
-931 930 -932 0
931 -930 -932 0
932 -930 -931 0
932 930 931 0
-932 0
-925 933 0
-931 933 0
925 931 -933 0
934 -933 0
-934 933 0
-925 -931 0
-927 935 0
-934 935 0
927 934 -935 0
936 -935 0
-936 935 0
-927 -934 0
937 -938 0
939 -940 0
939 -941 0
937 939 -942 0
-943 942 -944 0
943 -942 -944 0
944 -942 -943 0
944 942 943 0
-944 0
-937 945 0
-943 945 0
937 943 -945 0
946 -945 0
-946 945 0
-937 -943 0
-939 947 0
-946 947 0
939 946 -947 0
948 -947 0
-948 947 0
-939 -946 0
949 -950 0
951 -952 0
951 -953 0
949 951 -954 0
-955 954 -956 0
955 -954 -956 0
956 -954 -955 0
956 954 955 0
-956 0
-949 957 0
-955 957 0
949 955 -957 0
958 -957 0
-958 957 0
-949 -955 0
-951 959 0
-958 959 0
951 958 -959 0
960 -959 0
-960 959 0
-951 -958 0
961 -962 0
963 -964 0
963 -965 0
961 963 -966 0
-967 966 -968 0
967 -966 -968 0
968 -966 -967 0
968 966 967 0
-968 0
-961 969 0
-967 969 0
961 967 -969 0
970 -969 0
-970 969 0
-961 -967 0
-963 971 0
-970 971 0
963 970 -971 0
972 -971 0
-972 971 0
-963 -970 0
973 -974 0
975 -976 0
975 -977 0
973 975 -978 0
-979 978 -980 0
979 -978 -980 0
980 -978 -979 0
980 978 979 0
-980 0
-973 981 0
-979 981 0
973 979 -981 0
982 -981 0
-982 981 0
-973 -979 0
-975 983 0
-982 983 0
975 982 -983 0
984 -983 0
-984 983 0
-975 -982 0
985 -986 0
987 -988 0
987 -989 0
985 987 -990 0
-991 990 -992 0
991 -990 -992 0
992 -990 -991 0
992 990 991 0
-992 0
-985 993 0
-991 993 0
985 991 -993 0
994 -993 0
-994 993 0
-985 -991 0
-987 995 0
-994 995 0
987 994 -995 0
996 -995 0
-996 995 0
-987 -994 0
997 -998 0
999 -1000 0
999 -1001 0
997 999 -1002 0
-1003 1002 -1004 0
1003 -1002 -1004 0
1004 -1002 -1003 0
1004 1002 1003 0
-1004 0
-997 1005 0
-1003 1005 0
997 1003 -1005 0
1006 -1005 0
-1006 1005 0
-997 -1003 0
-999 1007 0
-1006 1007 0
999 1006 -1007 0
1008 -1007 0
-1008 1007 0
-999 -1006 0
1009 -1010 0
1011 -1012 0
1011 -1013 0
1009 1011 -1014 0
-1015 1014 -1016 0
1015 -1014 -1016 0
1016 -1014 -1015 0
1016 1014 1015 0
-1016 0
-1009 1017 0
-1015 1017 0
1009 1015 -1017 0
1018 -1017 0
-1018 1017 0
-1009 -1015 0
-1011 1019 0
-1018 1019 0
1011 1018 -1019 0
1020 -1019 0
-1020 1019 0
-1011 -1018 0
1021 -1022 0
1023 -1024 0
1023 -1025 0
1021 1023 -1026 0
-1027 1026 -1028 0
1027 -1026 -1028 0
1028 -1026 -1027 0
1028 1026 1027 0
-1028 0
-1021 1029 0
-1027 1029 0
1021 1027 -1029 0
1030 -1029 0
-1030 1029 0
-1021 -1027 0
-1023 1031 0
-1030 1031 0
1023 1030 -1031 0
1032 -1031 0
-1032 1031 0
-1023 -1030 0
1033 -1034 0
1035 -1036 0
1035 -1037 0
1033 1035 -1038 0
-1039 1038 -1040 0
1039 -1038 -1040 0
1040 -1038 -1039 0
1040 1038 1039 0
-1040 0
-1033 1041 0
-1039 1041 0
1033 1039 -1041 0
1042 -1041 0
-1042 1041 0
-1033 -1039 0
-1035 1043 0
-1042 1043 0
1035 1042 -1043 0
1044 -1043 0
-1044 1043 0
-1035 -1042 0
1045 -1046 0
1047 -1048 0
1047 -1049 0
1045 1047 -1050 0
-1051 1050 -1052 0
1051 -1050 -1052 0
1052 -1050 -1051 0
1052 1050 1051 0
-1052 0
-1045 1053 0
-1051 1053 0
1045 1051 -1053 0
1054 -1053 0
-1054 1053 0
-1045 -1051 0
-1047 1055 0
-1054 1055 0
1047 1054 -1055 0
1056 -1055 0
-1056 1055 0
-1047 -1054 0
1057 -1058 0
1059 -1060 0
1059 -1061 0
1057 1059 -1062 0
-1063 1062 -1064 0
1063 -1062 -1064 0
1064 -1062 -1063 0
1064 1062 1063 0
-1064 0
-1057 1065 0
-1063 1065 0
1057 1063 -1065 0
1066 -1065 0
-1066 1065 0
-1057 -1063 0
-1059 1067 0
-1066 1067 0
1059 1066 -1067 0
1068 -1067 0
-1068 1067 0
-1059 -1066 0
1069 -1070 0
1071 -1072 0
1071 -1073 0
1069 1071 -1074 0
-1075 1074 -1076 0
1075 -1074 -1076 0
1076 -1074 -1075 0
1076 1074 1075 0
-1076 0
-1069 1077 0
-1075 1077 0
1069 1075 -1077 0
1078 -1077 0
-1078 1077 0
-1069 -1075 0
-1071 1079 0
-1078 1079 0
1071 1078 -1079 0
1080 -1079 0
-1080 1079 0
-1071 -1078 0
1081 -1082 0
1083 -1084 0
1083 -1085 0
1081 1083 -1086 0
-1087 1086 -1088 0
1087 -1086 -1088 0
1088 -1086 -1087 0
1088 1086 1087 0
-1088 0
-1081 1089 0
-1087 1089 0
1081 1087 -1089 0
1090 -1089 0
-1090 1089 0
-1081 -1087 0
-1083 1091 0
-1090 1091 0
1083 1090 -1091 0
1092 -1091 0
-1092 1091 0
-1083 -1090 0
1093 -1094 0
1095 -1096 0
1095 -1097 0
1093 1095 -1098 0
-1099 1098 -1100 0
1099 -1098 -1100 0
1100 -1098 -1099 0
1100 1098 1099 0
-1100 0
-1093 1101 0
-1099 1101 0
1093 1099 -1101 0
1102 -1101 0
-1102 1101 0
-1093 -1099 0
-1095 1103 0
-1102 1103 0
1095 1102 -1103 0
1104 -1103 0
-1104 1103 0
-1095 -1102 0
1105 -1106 0
1107 -1108 0
1107 -1109 0
1105 1107 -1110 0
-1111 1110 -1112 0
1111 -1110 -1112 0
1112 -1110 -1111 0
1112 1110 1111 0
-1112 0
-1105 1113 0
-1111 1113 0
1105 1111 -1113 0
1114 -1113 0
-1114 1113 0
-1105 -1111 0
-1107 1115 0
-1114 1115 0
1107 1114 -1115 0
1116 -1115 0
-1116 1115 0
-1107 -1114 0
1117 -1118 0
1119 -1120 0
1119 -1121 0
1117 1119 -1122 0
-1123 1122 -1124 0
1123 -1122 -1124 0
1124 -1122 -1123 0
1124 1122 1123 0
-1124 0
-1117 1125 0
-1123 1125 0
1117 1123 -1125 0
1126 -1125 0
-1126 1125 0
-1117 -1123 0
-1119 1127 0
-1126 1127 0
1119 1126 -1127 0
1128 -1127 0
-1128 1127 0
-1119 -1126 0
1129 -1130 0
1131 -1132 0
1131 -1133 0
1129 1131 -1134 0
-1135 1134 -1136 0
1135 -1134 -1136 0
1136 -1134 -1135 0
1136 1134 1135 0
-1136 0
-1129 1137 0
-1135 1137 0
1129 1135 -1137 0
1138 -1137 0
-1138 1137 0
-1129 -1135 0
-1131 1139 0
-1138 1139 0
1131 1138 -1139 0
1140 -1139 0
-1140 1139 0
-1131 -1138 0
1141 -1142 0
1143 -1144 0
1143 -1145 0
1141 1143 -1146 0
-1147 1146 -1148 0
1147 -1146 -1148 0
1148 -1146 -1147 0
1148 1146 1147 0
-1148 0
-1141 1149 0
-1147 1149 0
1141 1147 -1149 0
1150 -1149 0
-1150 1149 0
-1141 -1147 0
-1143 1151 0
-1150 1151 0
1143 1150 -1151 0
1152 -1151 0
-1152 1151 0
-1143 -1150 0
1153 -1154 0
1155 -1156 0
1155 -1157 0
1153 1155 -1158 0
-1159 1158 -1160 0
1159 -1158 -1160 0
1160 -1158 -1159 0
1160 1158 1159 0
-1160 0
-1153 1161 0
-1159 1161 0
1153 1159 -1161 0
1162 -1161 0
-1162 1161 0
-1153 -1159 0
-1155 1163 0
-1162 1163 0
1155 1162 -1163 0
1164 -1163 0
-1164 1163 0
-1155 -1162 0
1165 -1166 0
1167 -1168 0
1167 -1169 0
1165 1167 -1170 0
-1171 1170 -1172 0
1171 -1170 -1172 0
1172 -1170 -1171 0
1172 1170 1171 0
-1172 0
-1165 1173 0
-1171 1173 0
1165 1171 -1173 0
1174 -1173 0
-1174 1173 0
-1165 -1171 0
-1167 1175 0
-1174 1175 0
1167 1174 -1175 0
1176 -1175 0
-1176 1175 0
-1167 -1174 0
1177 -1178 0
1179 -1180 0
1179 -1181 0
1177 1179 -1182 0
-1183 1182 -1184 0
1183 -1182 -1184 0
1184 -1182 -1183 0
1184 1182 1183 0
-1184 0
-1177 1185 0
-1183 1185 0
1177 1183 -1185 0
1186 -1185 0
-1186 1185 0
-1177 -1183 0
-1179 1187 0
-1186 1187 0
1179 1186 -1187 0
1188 -1187 0
-1188 1187 0
-1179 -1186 0
1189 -1190 0
1191 -1192 0
1191 -1193 0
1189 1191 -1194 0
-1195 1194 -1196 0
1195 -1194 -1196 0
1196 -1194 -1195 0
1196 1194 1195 0
-1196 0
-1189 1197 0
-1195 1197 0
1189 1195 -1197 0
1198 -1197 0
-1198 1197 0
-1189 -1195 0
-1191 1199 0
-1198 1199 0
1191 1198 -1199 0
1200 -1199 0
-1200 1199 0
-1191 -1198 0
1201 -1202 0
1203 -1204 0
1203 -1205 0
1201 1203 -1206 0
-1207 1206 -1208 0
1207 -1206 -1208 0
1208 -1206 -1207 0
1208 1206 1207 0
-1208 0
-1201 1209 0
-1207 1209 0
1201 1207 -1209 0
1210 -1209 0
-1210 1209 0
-1201 -1207 0
-1203 1211 0
-1210 1211 0
1203 1210 -1211 0
1212 -1211 0
-1212 1211 0
-1203 -1210 0
1213 -1214 0
1215 -1216 0
1215 -1217 0
1213 1215 -1218 0
-1219 1218 -1220 0
1219 -1218 -1220 0
1220 -1218 -1219 0
1220 1218 1219 0
-1220 0
-1213 1221 0
-1219 1221 0
1213 1219 -1221 0
1222 -1221 0
-1222 1221 0
-1213 -1219 0
-1215 1223 0
-1222 1223 0
1215 1222 -1223 0
1224 -1223 0
-1224 1223 0
-1215 -1222 0
1225 -1226 0
1227 -1228 0
1227 -1229 0
1225 1227 -1230 0
-1231 1230 -1232 0
1231 -1230 -1232 0
1232 -1230 -1231 0
1232 1230 1231 0
-1232 0
-1225 1233 0
-1231 1233 0
1225 1231 -1233 0
1234 -1233 0
-1234 1233 0
-1225 -1231 0
-1227 1235 0
-1234 1235 0
1227 1234 -1235 0
1236 -1235 0
-1236 1235 0
-1227 -1234 0
1237 -1238 0
1239 -1240 0
1239 -1241 0
1237 1239 -1242 0
-1243 1242 -1244 0
1243 -1242 -1244 0
1244 -1242 -1243 0
1244 1242 1243 0
-1244 0
-1237 1245 0
-1243 1245 0
1237 1243 -1245 0
1246 -1245 0
-1246 1245 0
-1237 -1243 0
-1239 1247 0
-1246 1247 0
1239 1246 -1247 0
1248 -1247 0
-1248 1247 0
-1239 -1246 0
1249 -1250 0
1251 -1252 0
1251 -1253 0
1249 1251 -1254 0
-1255 1254 -1256 0
1255 -1254 -1256 0
1256 -1254 -1255 0
1256 1254 1255 0
-1256 0
-1249 1257 0
-1255 1257 0
1249 1255 -1257 0
1258 -1257 0
-1258 1257 0
-1249 -1255 0
-1251 1259 0
-1258 1259 0
1251 1258 -1259 0
1260 -1259 0
-1260 1259 0
-1251 -1258 0
1261 -1262 0
1263 -1264 0
1263 -1265 0
1261 1263 -1266 0
-1267 1266 -1268 0
1267 -1266 -1268 0
1268 -1266 -1267 0
1268 1266 1267 0
-1268 0
-1261 1269 0
-1267 1269 0
1261 1267 -1269 0
1270 -1269 0
-1270 1269 0
-1261 -1267 0
-1263 1271 0
-1270 1271 0
1263 1270 -1271 0
1272 -1271 0
-1272 1271 0
-1263 -1270 0
1273 -1274 0
1275 -1276 0
1275 -1277 0
1273 1275 -1278 0
-1279 1278 -1280 0
1279 -1278 -1280 0
1280 -1278 -1279 0
1280 1278 1279 0
-1280 0
-1273 1281 0
-1279 1281 0
1273 1279 -1281 0
1282 -1281 0
-1282 1281 0
-1273 -1279 0
-1275 1283 0
-1282 1283 0
1275 1282 -1283 0
1284 -1283 0
-1284 1283 0
-1275 -1282 0
1285 -1286 0
1287 -1288 0
1287 -1289 0
1285 1287 -1290 0
-1291 1290 -1292 0
1291 -1290 -1292 0
1292 -1290 -1291 0
1292 1290 1291 0
-1292 0
-1285 1293 0
-1291 1293 0
1285 1291 -1293 0
1294 -1293 0
-1294 1293 0
-1285 -1291 0
-1287 1295 0
-1294 1295 0
1287 1294 -1295 0
1296 -1295 0
-1296 1295 0
-1287 -1294 0
1297 -1298 0
1299 -1300 0
1299 -1301 0
1297 1299 -1302 0
-1303 1302 -1304 0
1303 -1302 -1304 0
1304 -1302 -1303 0
1304 1302 1303 0
-1304 0
-1297 1305 0
-1303 1305 0
1297 1303 -1305 0
1306 -1305 0
-1306 1305 0
-1297 -1303 0
-1299 1307 0
-1306 1307 0
1299 1306 -1307 0
1308 -1307 0
-1308 1307 0
-1299 -1306 0
1309 -1310 0
1311 -1312 0
1311 -1313 0
1309 1311 -1314 0
-1315 1314 -1316 0
1315 -1314 -1316 0
1316 -1314 -1315 0
1316 1314 1315 0
-1316 0
-1309 1317 0
-1315 1317 0
1309 1315 -1317 0
1318 -1317 0
-1318 1317 0
-1309 -1315 0
-1311 1319 0
-1318 1319 0
1311 1318 -1319 0
1320 -1319 0
-1320 1319 0
-1311 -1318 0
1321 -1322 0
1323 -1324 0
1323 -1325 0
1321 1323 -1326 0
-1327 1326 -1328 0
1327 -1326 -1328 0
1328 -1326 -1327 0
1328 1326 1327 0
-1328 0
-1321 1329 0
-1327 1329 0
1321 1327 -1329 0
1330 -1329 0
-1330 1329 0
-1321 -1327 0
-1323 1331 0
-1330 1331 0
1323 1330 -1331 0
1332 -1331 0
-1332 1331 0
-1323 -1330 0
1333 -1334 0
1335 -1336 0
1335 -1337 0
1333 1335 -1338 0
-1339 1338 -1340 0
1339 -1338 -1340 0
1340 -1338 -1339 0
1340 1338 1339 0
-1340 0
-1333 1341 0
-1339 1341 0
1333 1339 -1341 0
1342 -1341 0
-1342 1341 0
-1333 -1339 0
-1335 1343 0
-1342 1343 0
1335 1342 -1343 0
1344 -1343 0
-1344 1343 0
-1335 -1342 0
1345 -1346 0
1347 -1348 0
1347 -1349 0
1345 1347 -1350 0
-1351 1350 -1352 0
1351 -1350 -1352 0
1352 -1350 -1351 0
1352 1350 1351 0
-1352 0
-1345 1353 0
-1351 1353 0
1345 1351 -1353 0
1354 -1353 0
-1354 1353 0
-1345 -1351 0
-1347 1355 0
-1354 1355 0
1347 1354 -1355 0
1356 -1355 0
-1356 1355 0
-1347 -1354 0
1357 -1358 0
1359 -1360 0
1359 -1361 0
1357 1359 -1362 0
-1363 1362 -1364 0
1363 -1362 -1364 0
1364 -1362 -1363 0
1364 1362 1363 0
-1364 0
-1357 1365 0
-1363 1365 0
1357 1363 -1365 0
1366 -1365 0
-1366 1365 0
-1357 -1363 0
-1359 1367 0
-1366 1367 0
1359 1366 -1367 0
1368 -1367 0
-1368 1367 0
-1359 -1366 0
1369 -1370 0
1371 -1372 0
1371 -1373 0
1369 1371 -1374 0
-1375 1374 -1376 0
1375 -1374 -1376 0
1376 -1374 -1375 0
1376 1374 1375 0
-1376 0
-1369 1377 0
-1375 1377 0
1369 1375 -1377 0
1378 -1377 0
-1378 1377 0
-1369 -1375 0
-1371 1379 0
-1378 1379 0
1371 1378 -1379 0
1380 -1379 0
-1380 1379 0
-1371 -1378 0
1381 -1382 0
1383 -1384 0
1383 -1385 0
1381 1383 -1386 0
-1387 1386 -1388 0
1387 -1386 -1388 0
1388 -1386 -1387 0
1388 1386 1387 0
-1388 0
-1381 1389 0
-1387 1389 0
1381 1387 -1389 0
1390 -1389 0
-1390 1389 0
-1381 -1387 0
-1383 1391 0
-1390 1391 0
1383 1390 -1391 0
1392 -1391 0
-1392 1391 0
-1383 -1390 0
1393 -1394 0
1395 -1396 0
1395 -1397 0
1393 1395 -1398 0
-1399 1398 -1400 0
1399 -1398 -1400 0
1400 -1398 -1399 0
1400 1398 1399 0
-1400 0
-1393 1401 0
-1399 1401 0
1393 1399 -1401 0
1402 -1401 0
-1402 1401 0
-1393 -1399 0
-1395 1403 0
-1402 1403 0
1395 1402 -1403 0
1404 -1403 0
-1404 1403 0
-1395 -1402 0
1405 -1406 0
1407 -1408 0
1407 -1409 0
1405 1407 -1410 0
-1411 1410 -1412 0
1411 -1410 -1412 0
1412 -1410 -1411 0
1412 1410 1411 0
-1412 0
-1405 1413 0
-1411 1413 0
1405 1411 -1413 0
1414 -1413 0
-1414 1413 0
-1405 -1411 0
-1407 1415 0
-1414 1415 0
1407 1414 -1415 0
1416 -1415 0
-1416 1415 0
-1407 -1414 0
1417 -1418 0
1419 -1420 0
1419 -1421 0
1417 1419 -1422 0
-1423 1422 -1424 0
1423 -1422 -1424 0
1424 -1422 -1423 0
1424 1422 1423 0
-1424 0
-1417 1425 0
-1423 1425 0
1417 1423 -1425 0
1426 -1425 0
-1426 1425 0
-1417 -1423 0
-1419 1427 0
-1426 1427 0
1419 1426 -1427 0
1428 -1427 0
-1428 1427 0
-1419 -1426 0
1429 -1430 0
1431 -1432 0
1431 -1433 0
1429 1431 -1434 0
-1435 1434 -1436 0
1435 -1434 -1436 0
1436 -1434 -1435 0
1436 1434 1435 0
-1436 0
-1429 1437 0
-1435 1437 0
1429 1435 -1437 0
1438 -1437 0
-1438 1437 0
-1429 -1435 0
-1431 1439 0
-1438 1439 0
1431 1438 -1439 0
1440 -1439 0
-1440 1439 0
-1431 -1438 0
1441 -1442 0
1443 -1444 0
1443 -1445 0
1441 1443 -1446 0
-1447 1446 -1448 0
1447 -1446 -1448 0
1448 -1446 -1447 0
1448 1446 1447 0
-1448 0
-1441 1449 0
-1447 1449 0
1441 1447 -1449 0
1450 -1449 0
-1450 1449 0
-1441 -1447 0
-1443 1451 0
-1450 1451 0
1443 1450 -1451 0
1452 -1451 0
-1452 1451 0
-1443 -1450 0
1453 -1454 0
1455 -1456 0
1455 -1457 0
1453 1455 -1458 0
-1459 1458 -1460 0
1459 -1458 -1460 0
1460 -1458 -1459 0
1460 1458 1459 0
-1460 0
-1453 1461 0
-1459 1461 0
1453 1459 -1461 0
1462 -1461 0
-1462 1461 0
-1453 -1459 0
-1455 1463 0
-1462 1463 0
1455 1462 -1463 0
1464 -1463 0
-1464 1463 0
-1455 -1462 0
1465 -1466 0
1467 -1468 0
1467 -1469 0
1465 1467 -1470 0
-1471 1470 -1472 0
1471 -1470 -1472 0
1472 -1470 -1471 0
1472 1470 1471 0
-1472 0
-1465 1473 0
-1471 1473 0
1465 1471 -1473 0
1474 -1473 0
-1474 1473 0
-1465 -1471 0
-1467 1475 0
-1474 1475 0
1467 1474 -1475 0
1476 -1475 0
-1476 1475 0
-1467 -1474 0
1477 -1478 0
1479 -1480 0
1479 -1481 0
1477 1479 -1482 0
-1483 1482 -1484 0
1483 -1482 -1484 0
1484 -1482 -1483 0
1484 1482 1483 0
-1484 0
-1477 1485 0
-1483 1485 0
1477 1483 -1485 0
1486 -1485 0
-1486 1485 0
-1477 -1483 0
-1479 1487 0
-1486 1487 0
1479 1486 -1487 0
1488 -1487 0
-1488 1487 0
-1479 -1486 0
1489 -1490 0
1491 -1492 0
1491 -1493 0
1489 1491 -1494 0
-1495 1494 -1496 0
1495 -1494 -1496 0
1496 -1494 -1495 0
1496 1494 1495 0
-1496 0
-1489 1497 0
-1495 1497 0
1489 1495 -1497 0
1498 -1497 0
-1498 1497 0
-1489 -1495 0
-1491 1499 0
-1498 1499 0
1491 1498 -1499 0
1500 -1499 0
-1500 1499 0
-1491 -1498 0
1501 -1502 0
1503 -1504 0
1503 -1505 0
1501 1503 -1506 0
-1507 1506 -1508 0
1507 -1506 -1508 0
1508 -1506 -1507 0
1508 1506 1507 0
-1508 0
-1501 1509 0
-1507 1509 0
1501 1507 -1509 0
1510 -1509 0
-1510 1509 0
-1501 -1507 0
-1503 1511 0
-1510 1511 0
1503 1510 -1511 0
1512 -1511 0
-1512 1511 0
-1503 -1510 0
1513 -1514 0
1515 -1516 0
1515 -1517 0
1513 1515 -1518 0
-1519 1518 -1520 0
1519 -1518 -1520 0
1520 -1518 -1519 0
1520 1518 1519 0
-1520 0
-1513 1521 0
-1519 1521 0
1513 1519 -1521 0
1522 -1521 0
-1522 1521 0
-1513 -1519 0
-1515 1523 0
-1522 1523 0
1515 1522 -1523 0
1524 -1523 0
-1524 1523 0
-1515 -1522 0
1525 -1526 0
1527 -1528 0
1527 -1529 0
1525 1527 -1530 0
-1531 1530 -1532 0
1531 -1530 -1532 0
1532 -1530 -1531 0
1532 1530 1531 0
-1532 0
-1525 1533 0
-1531 1533 0
1525 1531 -1533 0
1534 -1533 0
-1534 1533 0
-1525 -1531 0
-1527 1535 0
-1534 1535 0
1527 1534 -1535 0
1536 -1535 0
-1536 1535 0
-1527 -1534 0
1537 -1538 0
1539 -1540 0
1539 -1541 0
1537 1539 -1542 0
-1543 1542 -1544 0
1543 -1542 -1544 0
1544 -1542 -1543 0
1544 1542 1543 0
-1544 0
-1537 1545 0
-1543 1545 0
1537 1543 -1545 0
1546 -1545 0
-1546 1545 0
-1537 -1543 0
-1539 1547 0
-1546 1547 0
1539 1546 -1547 0
1548 -1547 0
-1548 1547 0
-1539 -1546 0
1549 -1550 0
1551 -1552 0
1551 -1553 0
1549 1551 -1554 0
-1555 1554 -1556 0
1555 -1554 -1556 0
1556 -1554 -1555 0
1556 1554 1555 0
-1556 0
-1549 1557 0
-1555 1557 0
1549 1555 -1557 0
1558 -1557 0
-1558 1557 0
-1549 -1555 0
-1551 1559 0
-1558 1559 0
1551 1558 -1559 0
1560 -1559 0
-1560 1559 0
-1551 -1558 0
1561 -1562 0
1563 -1564 0
1563 -1565 0
1561 1563 -1566 0
-1567 1566 -1568 0
1567 -1566 -1568 0
1568 -1566 -1567 0
1568 1566 1567 0
-1568 0
-1561 1569 0
-1567 1569 0
1561 1567 -1569 0
1570 -1569 0
-1570 1569 0
-1561 -1567 0
-1563 1571 0
-1570 1571 0
1563 1570 -1571 0
1572 -1571 0
-1572 1571 0
-1563 -1570 0
1573 -1574 0
1575 -1576 0
1575 -1577 0
1573 1575 -1578 0
-1579 1578 -1580 0
1579 -1578 -1580 0
1580 -1578 -1579 0
1580 1578 1579 0
-1580 0
-1573 1581 0
-1579 1581 0
1573 1579 -1581 0
1582 -1581 0
-1582 1581 0
-1573 -1579 0
-1575 1583 0
-1582 1583 0
1575 1582 -1583 0
1584 -1583 0
-1584 1583 0
-1575 -1582 0
1585 -1586 0
1587 -1588 0
1587 -1589 0
1585 1587 -1590 0
-1591 1590 -1592 0
1591 -1590 -1592 0
1592 -1590 -1591 0
1592 1590 1591 0
-1592 0
-1585 1593 0
-1591 1593 0
1585 1591 -1593 0
1594 -1593 0
-1594 1593 0
-1585 -1591 0
-1587 1595 0
-1594 1595 0
1587 1594 -1595 0
1596 -1595 0
-1596 1595 0
-1587 -1594 0
1597 -1598 0
1599 -1600 0
1599 -1601 0
1597 1599 -1602 0
-1603 1602 -1604 0
1603 -1602 -1604 0
1604 -1602 -1603 0
1604 1602 1603 0
-1604 0
-1597 1605 0
-1603 1605 0
1597 1603 -1605 0
1606 -1605 0
-1606 1605 0
-1597 -1603 0
-1599 1607 0
-1606 1607 0
1599 1606 -1607 0
1608 -1607 0
-1608 1607 0
-1599 -1606 0
1609 -1610 0
1611 -1612 0
1611 -1613 0
1609 1611 -1614 0
-1615 1614 -1616 0
1615 -1614 -1616 0
1616 -1614 -1615 0
1616 1614 1615 0
-1616 0
-1609 1617 0
-1615 1617 0
1609 1615 -1617 0
1618 -1617 0
-1618 1617 0
-1609 -1615 0
-1611 1619 0
-1618 1619 0
1611 1618 -1619 0
1620 -1619 0
-1620 1619 0
-1611 -1618 0
1621 -1622 0
1623 -1624 0
1623 -1625 0
1621 1623 -1626 0
-1627 1626 -1628 0
1627 -1626 -1628 0
1628 -1626 -1627 0
1628 1626 1627 0
-1628 0
-1621 1629 0
-1627 1629 0
1621 1627 -1629 0
1630 -1629 0
-1630 1629 0
-1621 -1627 0
-1623 1631 0
-1630 1631 0
1623 1630 -1631 0
1632 -1631 0
-1632 1631 0
-1623 -1630 0
1633 -1634 0
1635 -1636 0
1635 -1637 0
1633 1635 -1638 0
-1639 1638 -1640 0
1639 -1638 -1640 0
1640 -1638 -1639 0
1640 1638 1639 0
-1640 0
-1633 1641 0
-1639 1641 0
1633 1639 -1641 0
1642 -1641 0
-1642 1641 0
-1633 -1639 0
-1635 1643 0
-1642 1643 0
1635 1642 -1643 0
1644 -1643 0
-1644 1643 0
-1635 -1642 0
1645 -1646 0
1647 -1648 0
1647 -1649 0
1645 1647 -1650 0
-1651 1650 -1652 0
1651 -1650 -1652 0
1652 -1650 -1651 0
1652 1650 1651 0
-1652 0
-1645 1653 0
-1651 1653 0
1645 1651 -1653 0
1654 -1653 0
-1654 1653 0
-1645 -1651 0
-1647 1655 0
-1654 1655 0
1647 1654 -1655 0
1656 -1655 0
-1656 1655 0
-1647 -1654 0
1657 -1658 0
1659 -1660 0
1659 -1661 0
1657 1659 -1662 0
-1663 1662 -1664 0
1663 -1662 -1664 0
1664 -1662 -1663 0
1664 1662 1663 0
-1664 0
-1657 1665 0
-1663 1665 0
1657 1663 -1665 0
1666 -1665 0
-1666 1665 0
-1657 -1663 0
-1659 1667 0
-1666 1667 0
1659 1666 -1667 0
1668 -1667 0
-1668 1667 0
-1659 -1666 0
1669 -1670 0
1671 -1672 0
1671 -1673 0
1669 1671 -1674 0
-1675 1674 -1676 0
1675 -1674 -1676 0
1676 -1674 -1675 0
1676 1674 1675 0
-1676 0
-1669 1677 0
-1675 1677 0
1669 1675 -1677 0
1678 -1677 0
-1678 1677 0
-1669 -1675 0
-1671 1679 0
-1678 1679 0
1671 1678 -1679 0
1680 -1679 0
-1680 1679 0
-1671 -1678 0
1681 -1682 0
1683 -1684 0
1683 -1685 0
1681 1683 -1686 0
-1687 1686 -1688 0
1687 -1686 -1688 0
1688 -1686 -1687 0
1688 1686 1687 0
-1688 0
-1681 1689 0
-1687 1689 0
1681 1687 -1689 0
1690 -1689 0
-1690 1689 0
-1681 -1687 0
-1683 1691 0
-1690 1691 0
1683 1690 -1691 0
1692 -1691 0
-1692 1691 0
-1683 -1690 0
1693 -1694 0
1695 -1696 0
1695 -1697 0
1693 1695 -1698 0
-1699 1698 -1700 0
1699 -1698 -1700 0
1700 -1698 -1699 0
1700 1698 1699 0
-1700 0
-1693 1701 0
-1699 1701 0
1693 1699 -1701 0
1702 -1701 0
-1702 1701 0
-1693 -1699 0
-1695 1703 0
-1702 1703 0
1695 1702 -1703 0
1704 -1703 0
-1704 1703 0
-1695 -1702 0
1705 -1706 0
1707 -1708 0
1707 -1709 0
1705 1707 -1710 0
-1711 1710 -1712 0
1711 -1710 -1712 0
1712 -1710 -1711 0
1712 1710 1711 0
-1712 0
-1705 1713 0
-1711 1713 0
1705 1711 -1713 0
1714 -1713 0
-1714 1713 0
-1705 -1711 0
-1707 1715 0
-1714 1715 0
1707 1714 -1715 0
1716 -1715 0
-1716 1715 0
-1707 -1714 0
1717 -1718 0
1719 -1720 0
1719 -1721 0
1717 1719 -1722 0
-1723 1722 -1724 0
1723 -1722 -1724 0
1724 -1722 -1723 0
1724 1722 1723 0
-1724 0
-1717 1725 0
-1723 1725 0
1717 1723 -1725 0
1726 -1725 0
-1726 1725 0
-1717 -1723 0
-1719 1727 0
-1726 1727 0
1719 1726 -1727 0
1728 -1727 0
-1728 1727 0
-1719 -1726 0
1729 -1730 0
1731 -1732 0
1731 -1733 0
1729 1731 -1734 0
-1735 1734 -1736 0
1735 -1734 -1736 0
1736 -1734 -1735 0
1736 1734 1735 0
-1736 0
-1729 1737 0
-1735 1737 0
1729 1735 -1737 0
1738 -1737 0
-1738 1737 0
-1729 -1735 0
-1731 1739 0
-1738 1739 0
1731 1738 -1739 0
1740 -1739 0
-1740 1739 0
-1731 -1738 0
1741 -1742 0
1743 -1744 0
1743 -1745 0
1741 1743 -1746 0
-1747 1746 -1748 0
1747 -1746 -1748 0
1748 -1746 -1747 0
1748 1746 1747 0
-1748 0
-1741 1749 0
-1747 1749 0
1741 1747 -1749 0
1750 -1749 0
-1750 1749 0
-1741 -1747 0
-1743 1751 0
-1750 1751 0
1743 1750 -1751 0
1752 -1751 0
-1752 1751 0
-1743 -1750 0
1753 -1754 0
1755 -1756 0
1755 -1757 0
1753 1755 -1758 0
-1759 1758 -1760 0
1759 -1758 -1760 0
1760 -1758 -1759 0
1760 1758 1759 0
-1760 0
-1753 1761 0
-1759 1761 0
1753 1759 -1761 0
1762 -1761 0
-1762 1761 0
-1753 -1759 0
-1755 1763 0
-1762 1763 0
1755 1762 -1763 0
1764 -1763 0
-1764 1763 0
-1755 -1762 0
1765 -1766 0
1767 -1768 0
1767 -1769 0
1765 1767 -1770 0
-1771 1770 -1772 0
1771 -1770 -1772 0
1772 -1770 -1771 0
1772 1770 1771 0
-1772 0
-1765 1773 0
-1771 1773 0
1765 1771 -1773 0
1774 -1773 0
-1774 1773 0
-1765 -1771 0
-1767 1775 0
-1774 1775 0
1767 1774 -1775 0
1776 -1775 0
-1776 1775 0
-1767 -1774 0
1777 -1778 0
1779 -1780 0
1779 -1781 0
1777 1779 -1782 0
-1783 1782 -1784 0
1783 -1782 -1784 0
1784 -1782 -1783 0
1784 1782 1783 0
-1784 0
-1777 1785 0
-1783 1785 0
1777 1783 -1785 0
1786 -1785 0
-1786 1785 0
-1777 -1783 0
-1779 1787 0
-1786 1787 0
1779 1786 -1787 0
1788 -1787 0
-1788 1787 0
-1779 -1786 0
1789 -1790 0
1791 -1792 0
1791 -1793 0
1789 1791 -1794 0
-1795 1794 -1796 0
1795 -1794 -1796 0
1796 -1794 -1795 0
1796 1794 1795 0
-1796 0
-1789 1797 0
-1795 1797 0
1789 1795 -1797 0
1798 -1797 0
-1798 1797 0
-1789 -1795 0
-1791 1799 0
-1798 1799 0
1791 1798 -1799 0
1800 -1799 0
-1800 1799 0
-1791 -1798 0
1801 -1802 0
1803 -1804 0
1803 -1805 0
1801 1803 -1806 0
-1807 1806 -1808 0
1807 -1806 -1808 0
1808 -1806 -1807 0
1808 1806 1807 0
-1808 0
-1801 1809 0
-1807 1809 0
1801 1807 -1809 0
1810 -1809 0
-1810 1809 0
-1801 -1807 0
-1803 1811 0
-1810 1811 0
1803 1810 -1811 0
1812 -1811 0
-1812 1811 0
-1803 -1810 0
1813 -1814 0
1815 -1816 0
1815 -1817 0
1813 1815 -1818 0
-1819 1818 -1820 0
1819 -1818 -1820 0
1820 -1818 -1819 0
1820 1818 1819 0
-1820 0
-1813 1821 0
-1819 1821 0
1813 1819 -1821 0
1822 -1821 0
-1822 1821 0
-1813 -1819 0
-1815 1823 0
-1822 1823 0
1815 1822 -1823 0
1824 -1823 0
-1824 1823 0
-1815 -1822 0
1825 -1826 0
1827 -1828 0
1827 -1829 0
1825 1827 -1830 0
-1831 1830 -1832 0
1831 -1830 -1832 0
1832 -1830 -1831 0
1832 1830 1831 0
-1832 0
-1825 1833 0
-1831 1833 0
1825 1831 -1833 0
1834 -1833 0
-1834 1833 0
-1825 -1831 0
-1827 1835 0
-1834 1835 0
1827 1834 -1835 0
1836 -1835 0
-1836 1835 0
-1827 -1834 0
1837 -1838 0
1839 -1840 0
1839 -1841 0
1837 1839 -1842 0
-1843 1842 -1844 0
1843 -1842 -1844 0
1844 -1842 -1843 0
1844 1842 1843 0
-1844 0
-1837 1845 0
-1843 1845 0
1837 1843 -1845 0
1846 -1845 0
-1846 1845 0
-1837 -1843 0
-1839 1847 0
-1846 1847 0
1839 1846 -1847 0
1848 -1847 0
-1848 1847 0
-1839 -1846 0
1849 -1850 0
1851 -1852 0
1851 -1853 0
1849 1851 -1854 0
-1855 1854 -1856 0
1855 -1854 -1856 0
1856 -1854 -1855 0
1856 1854 1855 0
-1856 0
-1849 1857 0
-1855 1857 0
1849 1855 -1857 0
1858 -1857 0
-1858 1857 0
-1849 -1855 0
-1851 1859 0
-1858 1859 0
1851 1858 -1859 0
1860 -1859 0
-1860 1859 0
-1851 -1858 0
1861 -1862 0
1863 -1864 0
1863 -1865 0
1861 1863 -1866 0
-1867 1866 -1868 0
1867 -1866 -1868 0
1868 -1866 -1867 0
1868 1866 1867 0
-1868 0
-1861 1869 0
-1867 1869 0
1861 1867 -1869 0
1870 -1869 0
-1870 1869 0
-1861 -1867 0
-1863 1871 0
-1870 1871 0
1863 1870 -1871 0
1872 -1871 0
-1872 1871 0
-1863 -1870 0
1873 -1874 0
1875 -1876 0
1875 -1877 0
1873 1875 -1878 0
-1879 1878 -1880 0
1879 -1878 -1880 0
1880 -1878 -1879 0
1880 1878 1879 0
-1880 0
-1873 1881 0
-1879 1881 0
1873 1879 -1881 0
1882 -1881 0
-1882 1881 0
-1873 -1879 0
-1875 1883 0
-1882 1883 0
1875 1882 -1883 0
1884 -1883 0
-1884 1883 0
-1875 -1882 0
1885 -1886 0
1887 -1888 0
1887 -1889 0
1885 1887 -1890 0
-1891 1890 -1892 0
1891 -1890 -1892 0
1892 -1890 -1891 0
1892 1890 1891 0
-1892 0
-1885 1893 0
-1891 1893 0
1885 1891 -1893 0
1894 -1893 0
-1894 1893 0
-1885 -1891 0
-1887 1895 0
-1894 1895 0
1887 1894 -1895 0
1896 -1895 0
-1896 1895 0
-1887 -1894 0
1897 -1898 0
1899 -1900 0
1899 -1901 0
1897 1899 -1902 0
-1903 1902 -1904 0
1903 -1902 -1904 0
1904 -1902 -1903 0
1904 1902 1903 0
-1904 0
-1897 1905 0
-1903 1905 0
1897 1903 -1905 0
1906 -1905 0
-1906 1905 0
-1897 -1903 0
-1899 1907 0
-1906 1907 0
1899 1906 -1907 0
1908 -1907 0
-1908 1907 0
-1899 -1906 0
1909 -1910 0
1911 -1912 0
1911 -1913 0
1909 1911 -1914 0
-1915 1914 -1916 0
1915 -1914 -1916 0
1916 -1914 -1915 0
1916 1914 1915 0
-1916 0
-1909 1917 0
-1915 1917 0
1909 1915 -1917 0
1918 -1917 0
-1918 1917 0
-1909 -1915 0
-1911 1919 0
-1918 1919 0
1911 1918 -1919 0
1920 -1919 0
-1920 1919 0
-1911 -1918 0
1921 -1922 0
1923 -1924 0
1923 -1925 0
1921 1923 -1926 0
-1927 1926 -1928 0
1927 -1926 -1928 0
1928 -1926 -1927 0
1928 1926 1927 0
-1928 0
-1921 1929 0
-1927 1929 0
1921 1927 -1929 0
1930 -1929 0
-1930 1929 0
-1921 -1927 0
-1923 1931 0
-1930 1931 0
1923 1930 -1931 0
1932 -1931 0
-1932 1931 0
-1923 -1930 0
1933 -1934 0
1935 -1936 0
1935 -1937 0
1933 1935 -1938 0
-1939 1938 -1940 0
1939 -1938 -1940 0
1940 -1938 -1939 0
1940 1938 1939 0
-1940 0
-1933 1941 0
-1939 1941 0
1933 1939 -1941 0
1942 -1941 0
-1942 1941 0
-1933 -1939 0
-1935 1943 0
-1942 1943 0
1935 1942 -1943 0
1944 -1943 0
-1944 1943 0
-1935 -1942 0
1945 -1946 0
1947 -1948 0
1947 -1949 0
1945 1947 -1950 0
-1951 1950 -1952 0
1951 -1950 -1952 0
1952 -1950 -1951 0
1952 1950 1951 0
-1952 0
-1945 1953 0
-1951 1953 0
1945 1951 -1953 0
1954 -1953 0
-1954 1953 0
-1945 -1951 0
-1947 1955 0
-1954 1955 0
1947 1954 -1955 0
1956 -1955 0
-1956 1955 0
-1947 -1954 0
1957 -1958 0
1959 -1960 0
1959 -1961 0
1957 1959 -1962 0
-1963 1962 -1964 0
1963 -1962 -1964 0
1964 -1962 -1963 0
1964 1962 1963 0
-1964 0
-1957 1965 0
-1963 1965 0
1957 1963 -1965 0
1966 -1965 0
-1966 1965 0
-1957 -1963 0
-1959 1967 0
-1966 1967 0
1959 1966 -1967 0
1968 -1967 0
-1968 1967 0
-1959 -1966 0
1969 -1970 0
1971 -1972 0
1971 -1973 0
1969 1971 -1974 0
-1975 1974 -1976 0
1975 -1974 -1976 0
1976 -1974 -1975 0
1976 1974 1975 0
-1976 0
-1969 1977 0
-1975 1977 0
1969 1975 -1977 0
1978 -1977 0
-1978 1977 0
-1969 -1975 0
-1971 1979 0
-1978 1979 0
1971 1978 -1979 0
1980 -1979 0
-1980 1979 0
-1971 -1978 0
1981 -1982 0
1983 -1984 0
1983 -1985 0
1981 1983 -1986 0
-1987 1986 -1988 0
1987 -1986 -1988 0
1988 -1986 -1987 0
1988 1986 1987 0
-1988 0
-1981 1989 0
-1987 1989 0
1981 1987 -1989 0
1990 -1989 0
-1990 1989 0
-1981 -1987 0
-1983 1991 0
-1990 1991 0
1983 1990 -1991 0
1992 -1991 0
-1992 1991 0
-1983 -1990 0
1993 -1994 0
1995 -1996 0
1995 -1997 0
1993 1995 -1998 0
-1999 1998 -2000 0
1999 -1998 -2000 0
2000 -1998 -1999 0
2000 1998 1999 0
-2000 0
-1993 2001 0
-1999 2001 0
1993 1999 -2001 0
2002 -2001 0
-2002 2001 0
-1993 -1999 0
-1995 2003 0
-2002 2003 0
1995 2002 -2003 0
2004 -2003 0
-2004 2003 0
-1995 -2002 0
2005 -2006 0
2007 -2008 0
2007 -2009 0
2005 2007 -2010 0
-2011 2010 -2012 0
2011 -2010 -2012 0
2012 -2010 -2011 0
2012 2010 2011 0
-2012 0
-2005 2013 0
-2011 2013 0
2005 2011 -2013 0
2014 -2013 0
-2014 2013 0
-2005 -2011 0
-2007 2015 0
-2014 2015 0
2007 2014 -2015 0
2016 -2015 0
-2016 2015 0
-2007 -2014 0
2017 -2018 0
2019 -2020 0
2019 -2021 0
2017 2019 -2022 0
-2023 2022 -2024 0
2023 -2022 -2024 0
2024 -2022 -2023 0
2024 2022 2023 0
-2024 0
-2017 2025 0
-2023 2025 0
2017 2023 -2025 0
2026 -2025 0
-2026 2025 0
-2017 -2023 0
-2019 2027 0
-2026 2027 0
2019 2026 -2027 0
2028 -2027 0
-2028 2027 0
-2019 -2026 0
2029 -2030 0
2031 -2032 0
2031 -2033 0
2029 2031 -2034 0
-2035 2034 -2036 0
2035 -2034 -2036 0
2036 -2034 -2035 0
2036 2034 2035 0
-2036 0
-2029 2037 0
-2035 2037 0
2029 2035 -2037 0
2038 -2037 0
-2038 2037 0
-2029 -2035 0
-2031 2039 0
-2038 2039 0
2031 2038 -2039 0
2040 -2039 0
-2040 2039 0
-2031 -2038 0
2041 -2042 0
2043 -2044 0
2043 -2045 0
2041 2043 -2046 0
-2047 2046 -2048 0
2047 -2046 -2048 0
2048 -2046 -2047 0
2048 2046 2047 0
-2048 0
-2041 2049 0
-2047 2049 0
2041 2047 -2049 0
2050 -2049 0
-2050 2049 0
-2041 -2047 0
-2043 2051 0
-2050 2051 0
2043 2050 -2051 0
2052 -2051 0
-2052 2051 0
-2043 -2050 0
2053 -2054 0
2055 -2056 0
2055 -2057 0
2053 2055 -2058 0
-2059 2058 -2060 0
2059 -2058 -2060 0
2060 -2058 -2059 0
2060 2058 2059 0
-2060 0
-2053 2061 0
-2059 2061 0
2053 2059 -2061 0
2062 -2061 0
-2062 2061 0
-2053 -2059 0
-2055 2063 0
-2062 2063 0
2055 2062 -2063 0
2064 -2063 0
-2064 2063 0
-2055 -2062 0
2065 -2066 0
2067 -2068 0
2067 -2069 0
2065 2067 -2070 0
-2071 2070 -2072 0
2071 -2070 -2072 0
2072 -2070 -2071 0
2072 2070 2071 0
-2072 0
-2065 2073 0
-2071 2073 0
2065 2071 -2073 0
2074 -2073 0
-2074 2073 0
-2065 -2071 0
-2067 2075 0
-2074 2075 0
2067 2074 -2075 0
2076 -2075 0
-2076 2075 0
-2067 -2074 0
2077 -2078 0
2079 -2080 0
2079 -2081 0
2077 2079 -2082 0
-2083 2082 -2084 0
2083 -2082 -2084 0
2084 -2082 -2083 0
2084 2082 2083 0
-2084 0
-2077 2085 0
-2083 2085 0
2077 2083 -2085 0
2086 -2085 0
-2086 2085 0
-2077 -2083 0
-2079 2087 0
-2086 2087 0
2079 2086 -2087 0
2088 -2087 0
-2088 2087 0
-2079 -2086 0
2089 -2090 0
2091 -2092 0
2091 -2093 0
2089 2091 -2094 0
-2095 2094 -2096 0
2095 -2094 -2096 0
2096 -2094 -2095 0
2096 2094 2095 0
-2096 0
-2089 2097 0
-2095 2097 0
2089 2095 -2097 0
2098 -2097 0
-2098 2097 0
-2089 -2095 0
-2091 2099 0
-2098 2099 0
2091 2098 -2099 0
2100 -2099 0
-2100 2099 0
-2091 -2098 0
2101 -2102 0
2103 -2104 0
2103 -2105 0
2101 2103 -2106 0
-2107 2106 -2108 0
2107 -2106 -2108 0
2108 -2106 -2107 0
2108 2106 2107 0
-2108 0
-2101 2109 0
-2107 2109 0
2101 2107 -2109 0
2110 -2109 0
-2110 2109 0
-2101 -2107 0
-2103 2111 0
-2110 2111 0
2103 2110 -2111 0
2112 -2111 0
-2112 2111 0
-2103 -2110 0
2113 -2114 0
2115 -2116 0
2115 -2117 0
2113 2115 -2118 0
-2119 2118 -2120 0
2119 -2118 -2120 0
2120 -2118 -2119 0
2120 2118 2119 0
-2120 0
-2113 2121 0
-2119 2121 0
2113 2119 -2121 0
2122 -2121 0
-2122 2121 0
-2113 -2119 0
-2115 2123 0
-2122 2123 0
2115 2122 -2123 0
2124 -2123 0
-2124 2123 0
-2115 -2122 0
2125 -2126 0
2127 -2128 0
2127 -2129 0
2125 2127 -2130 0
-2131 2130 -2132 0
2131 -2130 -2132 0
2132 -2130 -2131 0
2132 2130 2131 0
-2132 0
-2125 2133 0
-2131 2133 0
2125 2131 -2133 0
2134 -2133 0
-2134 2133 0
-2125 -2131 0
-2127 2135 0
-2134 2135 0
2127 2134 -2135 0
2136 -2135 0
-2136 2135 0
-2127 -2134 0
2137 -2138 0
2139 -2140 0
2139 -2141 0
2137 2139 -2142 0
-2143 2142 -2144 0
2143 -2142 -2144 0
2144 -2142 -2143 0
2144 2142 2143 0
-2144 0
-2137 2145 0
-2143 2145 0
2137 2143 -2145 0
2146 -2145 0
-2146 2145 0
-2137 -2143 0
-2139 2147 0
-2146 2147 0
2139 2146 -2147 0
2148 -2147 0
-2148 2147 0
-2139 -2146 0
2149 -2150 0
2151 -2152 0
2151 -2153 0
2149 2151 -2154 0
-2155 2154 -2156 0
2155 -2154 -2156 0
2156 -2154 -2155 0
2156 2154 2155 0
-2156 0
-2149 2157 0
-2155 2157 0
2149 2155 -2157 0
2158 -2157 0
-2158 2157 0
-2149 -2155 0
-2151 2159 0
-2158 2159 0
2151 2158 -2159 0
2160 -2159 0
-2160 2159 0
-2151 -2158 0
2161 -2162 0
2163 -2164 0
2163 -2165 0
2161 2163 -2166 0
-2167 2166 -2168 0
2167 -2166 -2168 0
2168 -2166 -2167 0
2168 2166 2167 0
-2168 0
-2161 2169 0
-2167 2169 0
2161 2167 -2169 0
2170 -2169 0
-2170 2169 0
-2161 -2167 0
-2163 2171 0
-2170 2171 0
2163 2170 -2171 0
2172 -2171 0
-2172 2171 0
-2163 -2170 0
2173 -2174 0
2175 -2176 0
2175 -2177 0
2173 2175 -2178 0
-2179 2178 -2180 0
2179 -2178 -2180 0
2180 -2178 -2179 0
2180 2178 2179 0
-2180 0
-2173 2181 0
-2179 2181 0
2173 2179 -2181 0
2182 -2181 0
-2182 2181 0
-2173 -2179 0
-2175 2183 0
-2182 2183 0
2175 2182 -2183 0
2184 -2183 0
-2184 2183 0
-2175 -2182 0
2185 -2186 0
2187 -2188 0
2187 -2189 0
2185 2187 -2190 0
-2191 2190 -2192 0
2191 -2190 -2192 0
2192 -2190 -2191 0
2192 2190 2191 0
-2192 0
-2185 2193 0
-2191 2193 0
2185 2191 -2193 0
2194 -2193 0
-2194 2193 0
-2185 -2191 0
-2187 2195 0
-2194 2195 0
2187 2194 -2195 0
2196 -2195 0
-2196 2195 0
-2187 -2194 0
2197 -2198 0
2199 -2200 0
2199 -2201 0
2197 2199 -2202 0
-2203 2202 -2204 0
2203 -2202 -2204 0
2204 -2202 -2203 0
2204 2202 2203 0
-2204 0
-2197 2205 0
-2203 2205 0
2197 2203 -2205 0
2206 -2205 0
-2206 2205 0
-2197 -2203 0
-2199 2207 0
-2206 2207 0
2199 2206 -2207 0
2208 -2207 0
-2208 2207 0
-2199 -2206 0
2209 -2210 0
2211 -2212 0
2211 -2213 0
2209 2211 -2214 0
-2215 2214 -2216 0
2215 -2214 -2216 0
2216 -2214 -2215 0
2216 2214 2215 0
-2216 0
-2209 2217 0
-2215 2217 0
2209 2215 -2217 0
2218 -2217 0
-2218 2217 0
-2209 -2215 0
-2211 2219 0
-2218 2219 0
2211 2218 -2219 0
2220 -2219 0
-2220 2219 0
-2211 -2218 0
2221 -2222 0
2223 -2224 0
2223 -2225 0
2221 2223 -2226 0
-2227 2226 -2228 0
2227 -2226 -2228 0
2228 -2226 -2227 0
2228 2226 2227 0
-2228 0
-2221 2229 0
-2227 2229 0
2221 2227 -2229 0
2230 -2229 0
-2230 2229 0
-2221 -2227 0
-2223 2231 0
-2230 2231 0
2223 2230 -2231 0
2232 -2231 0
-2232 2231 0
-2223 -2230 0
2233 -2234 0
2235 -2236 0
2235 -2237 0
2233 2235 -2238 0
-2239 2238 -2240 0
2239 -2238 -2240 0
2240 -2238 -2239 0
2240 2238 2239 0
-2240 0
-2233 2241 0
-2239 2241 0
2233 2239 -2241 0
2242 -2241 0
-2242 2241 0
-2233 -2239 0
-2235 2243 0
-2242 2243 0
2235 2242 -2243 0
2244 -2243 0
-2244 2243 0
-2235 -2242 0
2245 -2246 0
2247 -2248 0
2247 -2249 0
2245 2247 -2250 0
-2251 2250 -2252 0
2251 -2250 -2252 0
2252 -2250 -2251 0
2252 2250 2251 0
-2252 0
-2245 2253 0
-2251 2253 0
2245 2251 -2253 0
2254 -2253 0
-2254 2253 0
-2245 -2251 0
-2247 2255 0
-2254 2255 0
2247 2254 -2255 0
2256 -2255 0
-2256 2255 0
-2247 -2254 0
2257 -2258 0
2259 -2260 0
2259 -2261 0
2257 2259 -2262 0
-2263 2262 -2264 0
2263 -2262 -2264 0
2264 -2262 -2263 0
2264 2262 2263 0
-2264 0
-2257 2265 0
-2263 2265 0
2257 2263 -2265 0
2266 -2265 0
-2266 2265 0
-2257 -2263 0
-2259 2267 0
-2266 2267 0
2259 2266 -2267 0
2268 -2267 0
-2268 2267 0
-2259 -2266 0
2269 -2270 0
2271 -2272 0
2271 -2273 0
2269 2271 -2274 0
-2275 2274 -2276 0
2275 -2274 -2276 0
2276 -2274 -2275 0
2276 2274 2275 0
-2276 0
-2269 2277 0
-2275 2277 0
2269 2275 -2277 0
2278 -2277 0
-2278 2277 0
-2269 -2275 0
-2271 2279 0
-2278 2279 0
2271 2278 -2279 0
2280 -2279 0
-2280 2279 0
-2271 -2278 0
2281 -2282 0
2283 -2284 0
2283 -2285 0
2281 2283 -2286 0
-2287 2286 -2288 0
2287 -2286 -2288 0
2288 -2286 -2287 0
2288 2286 2287 0
-2288 0
-2281 2289 0
-2287 2289 0
2281 2287 -2289 0
2290 -2289 0
-2290 2289 0
-2281 -2287 0
-2283 2291 0
-2290 2291 0
2283 2290 -2291 0
2292 -2291 0
-2292 2291 0
-2283 -2290 0
2293 -2294 0
2295 -2296 0
2295 -2297 0
2293 2295 -2298 0
-2299 2298 -2300 0
2299 -2298 -2300 0
2300 -2298 -2299 0
2300 2298 2299 0
-2300 0
-2293 2301 0
-2299 2301 0
2293 2299 -2301 0
2302 -2301 0
-2302 2301 0
-2293 -2299 0
-2295 2303 0
-2302 2303 0
2295 2302 -2303 0
2304 -2303 0
-2304 2303 0
-2295 -2302 0
2305 -2306 0
2307 -2308 0
2307 -2309 0
2305 2307 -2310 0
-2311 2310 -2312 0
2311 -2310 -2312 0
2312 -2310 -2311 0
2312 2310 2311 0
-2312 0
-2305 2313 0
-2311 2313 0
2305 2311 -2313 0
2314 -2313 0
-2314 2313 0
-2305 -2311 0
-2307 2315 0
-2314 2315 0
2307 2314 -2315 0
2316 -2315 0
-2316 2315 0
-2307 -2314 0
2317 -2318 0
2319 -2320 0
2319 -2321 0
2317 2319 -2322 0
-2323 2322 -2324 0
2323 -2322 -2324 0
2324 -2322 -2323 0
2324 2322 2323 0
-2324 0
-2317 2325 0
-2323 2325 0
2317 2323 -2325 0
2326 -2325 0
-2326 2325 0
-2317 -2323 0
-2319 2327 0
-2326 2327 0
2319 2326 -2327 0
2328 -2327 0
-2328 2327 0
-2319 -2326 0
2329 -2330 0
2331 -2332 0
2331 -2333 0
2329 2331 -2334 0
-2335 2334 -2336 0
2335 -2334 -2336 0
2336 -2334 -2335 0
2336 2334 2335 0
-2336 0
-2329 2337 0
-2335 2337 0
2329 2335 -2337 0
2338 -2337 0
-2338 2337 0
-2329 -2335 0
-2331 2339 0
-2338 2339 0
2331 2338 -2339 0
2340 -2339 0
-2340 2339 0
-2331 -2338 0
2341 -2342 0
2343 -2344 0
2343 -2345 0
2341 2343 -2346 0
-2347 2346 -2348 0
2347 -2346 -2348 0
2348 -2346 -2347 0
2348 2346 2347 0
-2348 0
-2341 2349 0
-2347 2349 0
2341 2347 -2349 0
2350 -2349 0
-2350 2349 0
-2341 -2347 0
-2343 2351 0
-2350 2351 0
2343 2350 -2351 0
2352 -2351 0
-2352 2351 0
-2343 -2350 0
2353 -2354 0
2355 -2356 0
2355 -2357 0
2353 2355 -2358 0
-2359 2358 -2360 0
2359 -2358 -2360 0
2360 -2358 -2359 0
2360 2358 2359 0
-2360 0
-2353 2361 0
-2359 2361 0
2353 2359 -2361 0
2362 -2361 0
-2362 2361 0
-2353 -2359 0
-2355 2363 0
-2362 2363 0
2355 2362 -2363 0
2364 -2363 0
-2364 2363 0
-2355 -2362 0
2365 -2366 0
2367 -2368 0
2367 -2369 0
2365 2367 -2370 0
-2371 2370 -2372 0
2371 -2370 -2372 0
2372 -2370 -2371 0
2372 2370 2371 0
-2372 0
-2365 2373 0
-2371 2373 0
2365 2371 -2373 0
2374 -2373 0
-2374 2373 0
-2365 -2371 0
-2367 2375 0
-2374 2375 0
2367 2374 -2375 0
2376 -2375 0
-2376 2375 0
-2367 -2374 0
2377 -2378 0
2379 -2380 0
2379 -2381 0
2377 2379 -2382 0
-2383 2382 -2384 0
2383 -2382 -2384 0
2384 -2382 -2383 0
2384 2382 2383 0
-2384 0
-2377 2385 0
-2383 2385 0
2377 2383 -2385 0
2386 -2385 0
-2386 2385 0
-2377 -2383 0
-2379 2387 0
-2386 2387 0
2379 2386 -2387 0
2388 -2387 0
-2388 2387 0
-2379 -2386 0
2389 -2390 0
2391 -2392 0
2391 -2393 0
2389 2391 -2394 0
-2395 2394 -2396 0
2395 -2394 -2396 0
2396 -2394 -2395 0
2396 2394 2395 0
-2396 0
-2389 2397 0
-2395 2397 0
2389 2395 -2397 0
2398 -2397 0
-2398 2397 0
-2389 -2395 0
-2391 2399 0
-2398 2399 0
2391 2398 -2399 0
2400 -2399 0
-2400 2399 0
-2391 -2398 0
2401 -2402 0
2403 -2404 0
2403 -2405 0
2401 2403 -2406 0
-2407 2406 -2408 0
2407 -2406 -2408 0
2408 -2406 -2407 0
2408 2406 2407 0
-2408 0
-2401 2409 0
-2407 2409 0
2401 2407 -2409 0
2410 -2409 0
-2410 2409 0
-2401 -2407 0
-2403 2411 0
-2410 2411 0
2403 2410 -2411 0
2412 -2411 0
-2412 2411 0
-2403 -2410 0
2413 -2414 0
2415 -2416 0
2415 -2417 0
2413 2415 -2418 0
-2419 2418 -2420 0
2419 -2418 -2420 0
2420 -2418 -2419 0
2420 2418 2419 0
-2420 0
-2413 2421 0
-2419 2421 0
2413 2419 -2421 0
2422 -2421 0
-2422 2421 0
-2413 -2419 0
-2415 2423 0
-2422 2423 0
2415 2422 -2423 0
2424 -2423 0
-2424 2423 0
-2415 -2422 0
2425 -2426 0
2427 -2428 0
2427 -2429 0
2425 2427 -2430 0
-2431 2430 -2432 0
2431 -2430 -2432 0
2432 -2430 -2431 0
2432 2430 2431 0
-2432 0
-2425 2433 0
-2431 2433 0
2425 2431 -2433 0
2434 -2433 0
-2434 2433 0
-2425 -2431 0
-2427 2435 0
-2434 2435 0
2427 2434 -2435 0
2436 -2435 0
-2436 2435 0
-2427 -2434 0
2437 -2438 0
2439 -2440 0
2439 -2441 0
2437 2439 -2442 0
-2443 2442 -2444 0
2443 -2442 -2444 0
2444 -2442 -2443 0
2444 2442 2443 0
-2444 0
-2437 2445 0
-2443 2445 0
2437 2443 -2445 0
2446 -2445 0
-2446 2445 0
-2437 -2443 0
-2439 2447 0
-2446 2447 0
2439 2446 -2447 0
2448 -2447 0
-2448 2447 0
-2439 -2446 0
-2449 0
2450 -2451 0
2452 -2453 0
2452 -2454 0
-2449 2450 2452 0
2449 -2455 -2456 0
-2449 2455 -2456 0
2456 -2449 -2455 0
2456 2449 2455 0
-2456 0
-2450 2457 0
-2455 2457 0
2450 2455 -2457 0
2458 -2457 0
-2458 2457 0
-2450 -2455 0
-2452 2459 0
-2458 2459 0
2452 2458 -2459 0
2460 -2459 0
-2460 2459 0
-2452 -2458 0
-2461 0
2462 -2463 0
2464 -2465 0
2464 -2466 0
-2461 2462 2464 0
2461 -2467 -2468 0
-2461 2467 -2468 0
2468 -2461 -2467 0
2468 2461 2467 0
-2468 0
-2462 2469 0
-2467 2469 0
2462 2467 -2469 0
2470 -2469 0
-2470 2469 0
-2462 -2467 0
-2464 2471 0
-2470 2471 0
2464 2470 -2471 0
2472 -2471 0
-2472 2471 0
-2464 -2470 0
-2473 0
2474 -2475 0
2476 -2477 0
2476 -2478 0
-2473 2474 2476 0
2473 -2479 -2480 0
-2473 2479 -2480 0
2480 -2473 -2479 0
2480 2473 2479 0
-2480 0
-2474 2481 0
-2479 2481 0
2474 2479 -2481 0
2482 -2481 0
-2482 2481 0
-2474 -2479 0
-2476 2483 0
-2482 2483 0
2476 2482 -2483 0
2484 -2483 0
-2484 2483 0
-2476 -2482 0
-2485 0
2486 -2487 0
2488 -2489 0
2488 -2490 0
-2485 2486 2488 0
2485 -2491 -2492 0
-2485 2491 -2492 0
2492 -2485 -2491 0
2492 2485 2491 0
-2492 0
-2486 2493 0
-2491 2493 0
2486 2491 -2493 0
2494 -2493 0
-2494 2493 0
-2486 -2491 0
-2488 2495 0
-2494 2495 0
2488 2494 -2495 0
2496 -2495 0
-2496 2495 0
-2488 -2494 0
2497 -2498 0
2499 -2500 0
2499 -2501 0
2497 2499 -2502 0
-2503 2502 -2504 0
2503 -2502 -2504 0
2504 -2502 -2503 0
2504 2502 2503 0
-2504 0
-2497 2505 0
-2503 2505 0
2497 2503 -2505 0
2506 -2505 0
-2506 2505 0
-2497 -2503 0
-2499 2507 0
-2506 2507 0
2499 2506 -2507 0
2508 -2507 0
-2508 2507 0
-2499 -2506 0
2509 -2510 0
2511 -2512 0
2511 -2513 0
2509 2511 -2514 0
-2515 2514 -2516 0
2515 -2514 -2516 0
2516 -2514 -2515 0
2516 2514 2515 0
-2516 0
-2509 2517 0
-2515 2517 0
2509 2515 -2517 0
2518 -2517 0
-2518 2517 0
-2509 -2515 0
-2511 2519 0
-2518 2519 0
2511 2518 -2519 0
2520 -2519 0
-2520 2519 0
-2511 -2518 0
-2521 0
2522 -2523 0
2524 -2525 0
2524 -2526 0
-2521 2522 2524 0
2521 -2527 -2528 0
-2521 2527 -2528 0
2528 -2521 -2527 0
2528 2521 2527 0
-2528 0
-2522 2529 0
-2527 2529 0
2522 2527 -2529 0
2530 -2529 0
-2530 2529 0
-2522 -2527 0
-2524 2531 0
-2530 2531 0
2524 2530 -2531 0
2532 -2531 0
-2532 2531 0
-2524 -2530 0
2533 -2534 0
2535 -2536 0
2535 -2537 0
2533 2535 -2538 0
-2539 2538 -2540 0
2539 -2538 -2540 0
2540 -2538 -2539 0
2540 2538 2539 0
-2540 0
-2533 2541 0
-2539 2541 0
2533 2539 -2541 0
2542 -2541 0
-2542 2541 0
-2533 -2539 0
-2535 2543 0
-2542 2543 0
2535 2542 -2543 0
2544 -2543 0
-2544 2543 0
-2535 -2542 0
2545 -2546 0
2547 -2548 0
2547 -2549 0
2545 2547 -2550 0
-2551 2550 -2552 0
2551 -2550 -2552 0
2552 -2550 -2551 0
2552 2550 2551 0
-2552 0
-2545 2553 0
-2551 2553 0
2545 2551 -2553 0
2554 -2553 0
-2554 2553 0
-2545 -2551 0
-2547 2555 0
-2554 2555 0
2547 2554 -2555 0
2556 -2555 0
-2556 2555 0
-2547 -2554 0
-2557 0
2558 -2559 0
2560 -2561 0
2560 -2562 0
-2557 2558 2560 0
2557 -2563 -2564 0
-2557 2563 -2564 0
2564 -2557 -2563 0
2564 2557 2563 0
-2564 0
-2558 2565 0
-2563 2565 0
2558 2563 -2565 0
2566 -2565 0
-2566 2565 0
-2558 -2563 0
-2560 2567 0
-2566 2567 0
2560 2566 -2567 0
2568 -2567 0
-2568 2567 0
-2560 -2566 0
2569 -2570 0
2571 -2572 0
2571 -2573 0
2569 2571 -2574 0
-2575 2574 -2576 0
2575 -2574 -2576 0
2576 -2574 -2575 0
2576 2574 2575 0
-2576 0
-2569 2577 0
-2575 2577 0
2569 2575 -2577 0
2578 -2577 0
-2578 2577 0
-2569 -2575 0
-2571 2579 0
-2578 2579 0
2571 2578 -2579 0
2580 -2579 0
-2580 2579 0
-2571 -2578 0
-2581 0
2582 -2583 0
2584 -2585 0
2584 -2586 0
-2581 2582 2584 0
2581 -2587 -2588 0
-2581 2587 -2588 0
2588 -2581 -2587 0
2588 2581 2587 0
-2588 0
-2582 2589 0
-2587 2589 0
2582 2587 -2589 0
2590 -2589 0
-2590 2589 0
-2582 -2587 0
-2584 2591 0
-2590 2591 0
2584 2590 -2591 0
2592 -2591 0
-2592 2591 0
-2584 -2590 0
-2593 0
2594 -2595 0
2596 -2597 0
2596 -2598 0
-2593 2594 2596 0
2593 -2599 -2600 0
-2593 2599 -2600 0
2600 -2593 -2599 0
2600 2593 2599 0
-2600 0
-2594 2601 0
-2599 2601 0
2594 2599 -2601 0
2602 -2601 0
-2602 2601 0
-2594 -2599 0
-2596 2603 0
-2602 2603 0
2596 2602 -2603 0
2604 -2603 0
-2604 2603 0
-2596 -2602 0
2605 -2606 0
2607 -2608 0
2607 -2609 0
2605 2607 -2610 0
-2611 2610 -2612 0
2611 -2610 -2612 0
2612 -2610 -2611 0
2612 2610 2611 0
-2612 0
-2605 2613 0
-2611 2613 0
2605 2611 -2613 0
2614 -2613 0
-2614 2613 0
-2605 -2611 0
-2607 2615 0
-2614 2615 0
2607 2614 -2615 0
2616 -2615 0
-2616 2615 0
-2607 -2614 0
2617 -2618 0
2619 -2620 0
2619 -2621 0
2617 2619 -2622 0
-2623 2622 -2624 0
2623 -2622 -2624 0
2624 -2622 -2623 0
2624 2622 2623 0
-2624 0
-2617 2625 0
-2623 2625 0
2617 2623 -2625 0
2626 -2625 0
-2626 2625 0
-2617 -2623 0
-2619 2627 0
-2626 2627 0
2619 2626 -2627 0
2628 -2627 0
-2628 2627 0
-2619 -2626 0
-2629 0
2630 -2631 0
2632 -2633 0
2632 -2634 0
-2629 2630 2632 0
2629 -2635 -2636 0
-2629 2635 -2636 0
2636 -2629 -2635 0
2636 2629 2635 0
-2636 0
-2630 2637 0
-2635 2637 0
2630 2635 -2637 0
2638 -2637 0
-2638 2637 0
-2630 -2635 0
-2632 2639 0
-2638 2639 0
2632 2638 -2639 0
2640 -2639 0
-2640 2639 0
-2632 -2638 0
2641 -2642 0
2643 -2644 0
2643 -2645 0
2641 2643 -2646 0
-2647 2646 -2648 0
2647 -2646 -2648 0
2648 -2646 -2647 0
2648 2646 2647 0
-2648 0
-2641 2649 0
-2647 2649 0
2641 2647 -2649 0
2650 -2649 0
-2650 2649 0
-2641 -2647 0
-2643 2651 0
-2650 2651 0
2643 2650 -2651 0
2652 -2651 0
-2652 2651 0
-2643 -2650 0
2653 -2654 0
2655 -2656 0
2655 -2657 0
2653 2655 -2658 0
-2659 2658 -2660 0
2659 -2658 -2660 0
2660 -2658 -2659 0
2660 2658 2659 0
-2660 0
-2653 2661 0
-2659 2661 0
2653 2659 -2661 0
2662 -2661 0
-2662 2661 0
-2653 -2659 0
-2655 2663 0
-2662 2663 0
2655 2662 -2663 0
2664 -2663 0
-2664 2663 0
-2655 -2662 0
-2665 0
2666 -2667 0
2668 -2669 0
2668 -2670 0
-2665 2666 2668 0
2665 -2671 -2672 0
-2665 2671 -2672 0
2672 -2665 -2671 0
2672 2665 2671 0
-2672 0
-2666 2673 0
-2671 2673 0
2666 2671 -2673 0
2674 -2673 0
-2674 2673 0
-2666 -2671 0
-2668 2675 0
-2674 2675 0
2668 2674 -2675 0
2676 -2675 0
-2676 2675 0
-2668 -2674 0
-2677 0
2678 -2679 0
2680 -2681 0
2680 -2682 0
-2677 2678 2680 0
2677 -2683 -2684 0
-2677 2683 -2684 0
2684 -2677 -2683 0
2684 2677 2683 0
-2684 0
-2678 2685 0
-2683 2685 0
2678 2683 -2685 0
2686 -2685 0
-2686 2685 0
-2678 -2683 0
-2680 2687 0
-2686 2687 0
2680 2686 -2687 0
2688 -2687 0
-2688 2687 0
-2680 -2686 0
-2689 0
2690 -2691 0
2692 -2693 0
2692 -2694 0
-2689 2690 2692 0
2689 -2695 -2696 0
-2689 2695 -2696 0
2696 -2689 -2695 0
2696 2689 2695 0
-2696 0
-2690 2697 0
-2695 2697 0
2690 2695 -2697 0
2698 -2697 0
-2698 2697 0
-2690 -2695 0
-2692 2699 0
-2698 2699 0
2692 2698 -2699 0
2700 -2699 0
-2700 2699 0
-2692 -2698 0
2701 -2702 0
2703 -2704 0
2703 -2705 0
2701 2703 -2706 0
-2707 2706 -2708 0
2707 -2706 -2708 0
2708 -2706 -2707 0
2708 2706 2707 0
-2708 0
-2701 2709 0
-2707 2709 0
2701 2707 -2709 0
2710 -2709 0
-2710 2709 0
-2701 -2707 0
-2703 2711 0
-2710 2711 0
2703 2710 -2711 0
2712 -2711 0
-2712 2711 0
-2703 -2710 0
2713 -2714 0
2715 -2716 0
2715 -2717 0
2713 2715 -2718 0
-2719 2718 -2720 0
2719 -2718 -2720 0
2720 -2718 -2719 0
2720 2718 2719 0
-2720 0
-2713 2721 0
-2719 2721 0
2713 2719 -2721 0
2722 -2721 0
-2722 2721 0
-2713 -2719 0
-2715 2723 0
-2722 2723 0
2715 2722 -2723 0
2724 -2723 0
-2724 2723 0
-2715 -2722 0
2725 -2726 0
2727 -2728 0
2727 -2729 0
2725 2727 -2730 0
-2731 2730 -2732 0
2731 -2730 -2732 0
2732 -2730 -2731 0
2732 2730 2731 0
-2732 0
-2725 2733 0
-2731 2733 0
2725 2731 -2733 0
2734 -2733 0
-2734 2733 0
-2725 -2731 0
-2727 2735 0
-2734 2735 0
2727 2734 -2735 0
2736 -2735 0
-2736 2735 0
-2727 -2734 0
2737 -2738 0
2739 -2740 0
2739 -2741 0
2737 2739 -2742 0
-2743 2742 -2744 0
2743 -2742 -2744 0
2744 -2742 -2743 0
2744 2742 2743 0
-2744 0
-2737 2745 0
-2743 2745 0
2737 2743 -2745 0
2746 -2745 0
-2746 2745 0
-2737 -2743 0
-2739 2747 0
-2746 2747 0
2739 2746 -2747 0
2748 -2747 0
-2748 2747 0
-2739 -2746 0
2749 -2750 0
2751 -2752 0
2751 -2753 0
2749 2751 -2754 0
-2755 2754 -2756 0
2755 -2754 -2756 0
2756 -2754 -2755 0
2756 2754 2755 0
-2756 0
-2749 2757 0
-2755 2757 0
2749 2755 -2757 0
2758 -2757 0
-2758 2757 0
-2749 -2755 0
-2751 2759 0
-2758 2759 0
2751 2758 -2759 0
2760 -2759 0
-2760 2759 0
-2751 -2758 0
2761 -2762 0
2763 -2764 0
2763 -2765 0
2761 2763 -2766 0
-2767 2766 -2768 0
2767 -2766 -2768 0
2768 -2766 -2767 0
2768 2766 2767 0
-2768 0
-2761 2769 0
-2767 2769 0
2761 2767 -2769 0
2770 -2769 0
-2770 2769 0
-2761 -2767 0
-2763 2771 0
-2770 2771 0
2763 2770 -2771 0
2772 -2771 0
-2772 2771 0
-2763 -2770 0
2773 -2774 0
2775 -2776 0
2775 -2777 0
2773 2775 -2778 0
-2779 2778 -2780 0
2779 -2778 -2780 0
2780 -2778 -2779 0
2780 2778 2779 0
-2780 0
-2773 2781 0
-2779 2781 0
2773 2779 -2781 0
2782 -2781 0
-2782 2781 0
-2773 -2779 0
-2775 2783 0
-2782 2783 0
2775 2782 -2783 0
2784 -2783 0
-2784 2783 0
-2775 -2782 0
2785 -2786 0
2787 -2788 0
2787 -2789 0
2785 2787 -2790 0
-2791 2790 -2792 0
2791 -2790 -2792 0
2792 -2790 -2791 0
2792 2790 2791 0
-2792 0
-2785 2793 0
-2791 2793 0
2785 2791 -2793 0
2794 -2793 0
-2794 2793 0
-2785 -2791 0
-2787 2795 0
-2794 2795 0
2787 2794 -2795 0
2796 -2795 0
-2796 2795 0
-2787 -2794 0
2797 -2798 0
2799 -2800 0
2799 -2801 0
2797 2799 -2802 0
-2803 2802 -2804 0
2803 -2802 -2804 0
2804 -2802 -2803 0
2804 2802 2803 0
-2804 0
-2797 2805 0
-2803 2805 0
2797 2803 -2805 0
2806 -2805 0
-2806 2805 0
-2797 -2803 0
-2799 2807 0
-2806 2807 0
2799 2806 -2807 0
2808 -2807 0
-2808 2807 0
-2799 -2806 0
2809 -2810 0
2811 -2812 0
2811 -2813 0
2809 2811 -2814 0
-2815 2814 -2816 0
2815 -2814 -2816 0
2816 -2814 -2815 0
2816 2814 2815 0
-2816 0
-2809 2817 0
-2815 2817 0
2809 2815 -2817 0
2818 -2817 0
-2818 2817 0
-2809 -2815 0
-2811 2819 0
-2818 2819 0
2811 2818 -2819 0
2820 -2819 0
-2820 2819 0
-2811 -2818 0
2821 -2822 0
2823 -2824 0
2823 -2825 0
2821 2823 -2826 0
-2827 2826 -2828 0
2827 -2826 -2828 0
2828 -2826 -2827 0
2828 2826 2827 0
-2828 0
-2821 2829 0
-2827 2829 0
2821 2827 -2829 0
2830 -2829 0
-2830 2829 0
-2821 -2827 0
-2823 2831 0
-2830 2831 0
2823 2830 -2831 0
2832 -2831 0
-2832 2831 0
-2823 -2830 0
2833 -2834 0
2835 -2836 0
2835 -2837 0
2833 2835 -2838 0
-2839 2838 -2840 0
2839 -2838 -2840 0
2840 -2838 -2839 0
2840 2838 2839 0
-2840 0
-2833 2841 0
-2839 2841 0
2833 2839 -2841 0
2842 -2841 0
-2842 2841 0
-2833 -2839 0
-2835 2843 0
-2842 2843 0
2835 2842 -2843 0
2844 -2843 0
-2844 2843 0
-2835 -2842 0
2845 -2846 0
2847 -2848 0
2847 -2849 0
2845 2847 -2850 0
-2851 2850 -2852 0
2851 -2850 -2852 0
2852 -2850 -2851 0
2852 2850 2851 0
-2852 0
-2845 2853 0
-2851 2853 0
2845 2851 -2853 0
2854 -2853 0
-2854 2853 0
-2845 -2851 0
-2847 2855 0
-2854 2855 0
2847 2854 -2855 0
2856 -2855 0
-2856 2855 0
-2847 -2854 0
2857 -2858 0
2859 -2860 0
2859 -2861 0
2857 2859 -2862 0
-2863 2862 -2864 0
2863 -2862 -2864 0
2864 -2862 -2863 0
2864 2862 2863 0
-2864 0
-2857 2865 0
-2863 2865 0
2857 2863 -2865 0
2866 -2865 0
-2866 2865 0
-2857 -2863 0
-2859 2867 0
-2866 2867 0
2859 2866 -2867 0
2868 -2867 0
-2868 2867 0
-2859 -2866 0
2869 -2870 0
2871 -2872 0
2871 -2873 0
2869 2871 -2874 0
-2875 2874 -2876 0
2875 -2874 -2876 0
2876 -2874 -2875 0
2876 2874 2875 0
-2876 0
-2869 2877 0
-2875 2877 0
2869 2875 -2877 0
2878 -2877 0
-2878 2877 0
-2869 -2875 0
-2871 2879 0
-2878 2879 0
2871 2878 -2879 0
2880 -2879 0
-2880 2879 0
-2871 -2878 0
2881 -2882 0
2883 -2884 0
2883 -2885 0
2881 2883 -2886 0
-2887 2886 -2888 0
2887 -2886 -2888 0
2888 -2886 -2887 0
2888 2886 2887 0
-2888 0
-2881 2889 0
-2887 2889 0
2881 2887 -2889 0
2890 -2889 0
-2890 2889 0
-2881 -2887 0
-2883 2891 0
-2890 2891 0
2883 2890 -2891 0
2892 -2891 0
-2892 2891 0
-2883 -2890 0
2893 -2894 0
2895 -2896 0
2895 -2897 0
2893 2895 -2898 0
-2899 2898 -2900 0
2899 -2898 -2900 0
2900 -2898 -2899 0
2900 2898 2899 0
-2900 0
-2893 2901 0
-2899 2901 0
2893 2899 -2901 0
2902 -2901 0
-2902 2901 0
-2893 -2899 0
-2895 2903 0
-2902 2903 0
2895 2902 -2903 0
2904 -2903 0
-2904 2903 0
-2895 -2902 0
2905 -2906 0
2907 -2908 0
2907 -2909 0
2905 2907 -2910 0
-2911 2910 -2912 0
2911 -2910 -2912 0
2912 -2910 -2911 0
2912 2910 2911 0
-2912 0
-2905 2913 0
-2911 2913 0
2905 2911 -2913 0
2914 -2913 0
-2914 2913 0
-2905 -2911 0
-2907 2915 0
-2914 2915 0
2907 2914 -2915 0
2916 -2915 0
-2916 2915 0
-2907 -2914 0
2917 -2918 0
2919 -2920 0
2919 -2921 0
2917 2919 -2922 0
-2923 2922 -2924 0
2923 -2922 -2924 0
2924 -2922 -2923 0
2924 2922 2923 0
-2924 0
-2917 2925 0
-2923 2925 0
2917 2923 -2925 0
2926 -2925 0
-2926 2925 0
-2917 -2923 0
-2919 2927 0
-2926 2927 0
2919 2926 -2927 0
2928 -2927 0
-2928 2927 0
-2919 -2926 0
2929 -2930 0
2931 -2932 0
2931 -2933 0
2929 2931 -2934 0
-2935 2934 -2936 0
2935 -2934 -2936 0
2936 -2934 -2935 0
2936 2934 2935 0
-2936 0
-2929 2937 0
-2935 2937 0
2929 2935 -2937 0
2938 -2937 0
-2938 2937 0
-2929 -2935 0
-2931 2939 0
-2938 2939 0
2931 2938 -2939 0
2940 -2939 0
-2940 2939 0
-2931 -2938 0
2941 -2942 0
2943 -2944 0
2943 -2945 0
2941 2943 -2946 0
-2947 2946 -2948 0
2947 -2946 -2948 0
2948 -2946 -2947 0
2948 2946 2947 0
-2948 0
-2941 2949 0
-2947 2949 0
2941 2947 -2949 0
2950 -2949 0
-2950 2949 0
-2941 -2947 0
-2943 2951 0
-2950 2951 0
2943 2950 -2951 0
2952 -2951 0
-2952 2951 0
-2943 -2950 0
2953 -1 0
1 -2953 0
-3 2954 0
-2953 2954 0
3 2953 -2954 0
2955 -2954 0
-2955 2954 0
-3 -2953 0
-2 0
-4 0
-5 0
-1 2956 0
-13 2956 0
-2197 2956 0
-2450 2956 0
1 13 2197 2450 -2956 0
2957 -2956 0
-2957 2956 0
-3 2958 0
-15 2958 0
-2199 2958 0
-2452 2958 0
-2957 2958 0
3 15 2199 2452 2957 -2958 0
2959 -2958 0
-2959 2958 0
-3 -2957 0
-15 -2957 0
-2199 -2957 0
-2452 -2957 0
-2 2960 0
-14 2960 0
2198 2960 0
2451 2960 0
2 14 -2198 -2451 -2960 0
-2 2961 0
14 2961 0
-2198 2961 0
2451 2961 0
2 -14 2198 -2451 -2961 0
-2 2962 0
14 2962 0
2198 2962 0
-2451 2962 0
2 -14 -2198 2451 -2962 0
2 2963 0
-14 2963 0
-2198 2963 0
2451 2963 0
-2 14 2198 -2451 -2963 0
2 2964 0
-14 2964 0
2198 2964 0
-2451 2964 0
-2 14 -2198 2451 -2964 0
2 -14 -2960 -2961 -2962 -2963 -2964 0
2 -2198 -2960 -2961 -2962 -2963 -2964 0
2 -2451 -2960 -2961 -2962 -2963 -2964 0
-2 14 -2960 -2961 -2962 -2963 -2964 0
14 -2198 -2960 -2961 -2962 -2963 -2964 0
14 -2451 -2960 -2961 -2962 -2963 -2964 0
-2 -2198 -2960 -2961 -2962 -2963 -2964 0
-14 -2198 -2960 -2961 -2962 -2963 -2964 0
-2198 -2960 -2961 -2962 -2963 -2964 0
-2198 -2451 -2960 -2961 -2962 -2963 -2964 0
-2 -2451 -2960 -2961 -2962 -2963 -2964 0
-14 -2451 -2960 -2961 -2962 -2963 -2964 0
-2451 -2960 -2961 -2962 -2963 -2964 0
-4 2965 0
-16 2965 0
2200 2965 0
2453 2965 0
4 16 -2200 -2453 -2965 0
-4 2966 0
16 2966 0
-2200 2966 0
2453 2966 0
4 -16 2200 -2453 -2966 0
-4 2967 0
16 2967 0
2200 2967 0
-2453 2967 0
4 -16 -2200 2453 -2967 0
4 2968 0
-16 2968 0
-2200 2968 0
2453 2968 0
-4 16 2200 -2453 -2968 0
4 2969 0
-16 2969 0
2200 2969 0
-2453 2969 0
-4 16 -2200 2453 -2969 0
4 -16 -2965 -2966 -2967 -2968 -2969 0
4 -2200 -2965 -2966 -2967 -2968 -2969 0
4 -2453 -2965 -2966 -2967 -2968 -2969 0
-4 16 -2965 -2966 -2967 -2968 -2969 0
16 -2200 -2965 -2966 -2967 -2968 -2969 0
16 -2453 -2965 -2966 -2967 -2968 -2969 0
-4 -2200 -2965 -2966 -2967 -2968 -2969 0
-16 -2200 -2965 -2966 -2967 -2968 -2969 0
-2200 -2965 -2966 -2967 -2968 -2969 0
-2200 -2453 -2965 -2966 -2967 -2968 -2969 0
-4 -2453 -2965 -2966 -2967 -2968 -2969 0
-16 -2453 -2965 -2966 -2967 -2968 -2969 0
-2453 -2965 -2966 -2967 -2968 -2969 0
-5 2970 0
-17 2970 0
2201 2970 0
2454 2970 0
5 17 -2201 -2454 -2970 0
-5 2971 0
17 2971 0
-2201 2971 0
2454 2971 0
5 -17 2201 -2454 -2971 0
-5 2972 0
17 2972 0
2201 2972 0
-2454 2972 0
5 -17 -2201 2454 -2972 0
5 2973 0
-17 2973 0
-2201 2973 0
2454 2973 0
-5 17 2201 -2454 -2973 0
5 2974 0
-17 2974 0
2201 2974 0
-2454 2974 0
-5 17 -2201 2454 -2974 0
5 -17 -2970 -2971 -2972 -2973 -2974 0
5 -2201 -2970 -2971 -2972 -2973 -2974 0
5 -2454 -2970 -2971 -2972 -2973 -2974 0
-5 17 -2970 -2971 -2972 -2973 -2974 0
17 -2201 -2970 -2971 -2972 -2973 -2974 0
17 -2454 -2970 -2971 -2972 -2973 -2974 0
-5 -2201 -2970 -2971 -2972 -2973 -2974 0
-17 -2201 -2970 -2971 -2972 -2973 -2974 0
-2201 -2970 -2971 -2972 -2973 -2974 0
-2201 -2454 -2970 -2971 -2972 -2973 -2974 0
-5 -2454 -2970 -2971 -2972 -2973 -2974 0
-17 -2454 -2970 -2971 -2972 -2973 -2974 0
-2454 -2970 -2971 -2972 -2973 -2974 0
-13 2975 0
-25 2975 0
13 25 -2975 0
2976 -2975 0
-2976 2975 0
-15 2977 0
-27 2977 0
-2976 2977 0
15 27 2976 -2977 0
2978 -2977 0
2977 -2978 0
-15 -2976 0
-27 -2976 0
14 -26 0
-14 26 0
28 -16 0
16 -28 0
29 -17 0
17 -29 0
-25 2979 0
-37 2979 0
-2209 2979 0
-2462 2979 0
25 37 2209 2462 -2979 0
2980 -2979 0
-2980 2979 0
-27 2981 0
-39 2981 0
-2211 2981 0
-2464 2981 0
-2980 2981 0
27 39 2211 2464 2980 -2981 0
2982 -2981 0
2981 -2982 0
-27 -2980 0
-39 -2980 0
-2211 -2980 0
-2464 -2980 0
-26 2983 0
-38 2983 0
2210 2983 0
2463 2983 0
26 38 -2210 -2463 -2983 0
-26 2984 0
38 2984 0
-2210 2984 0
2463 2984 0
26 -38 2210 -2463 -2984 0
-26 2985 0
38 2985 0
2210 2985 0
-2463 2985 0
26 -38 -2210 2463 -2985 0
26 2986 0
-38 2986 0
-2210 2986 0
2463 2986 0
-26 38 2210 -2463 -2986 0
26 2987 0
-38 2987 0
2210 2987 0
-2463 2987 0
-26 38 -2210 2463 -2987 0
26 -38 -2983 -2984 -2985 -2986 -2987 0
26 -2210 -2983 -2984 -2985 -2986 -2987 0
26 -2463 -2983 -2984 -2985 -2986 -2987 0
-26 38 -2983 -2984 -2985 -2986 -2987 0
38 -2210 -2983 -2984 -2985 -2986 -2987 0
38 -2463 -2983 -2984 -2985 -2986 -2987 0
-26 -2210 -2983 -2984 -2985 -2986 -2987 0
-38 -2210 -2983 -2984 -2985 -2986 -2987 0
-2210 -2983 -2984 -2985 -2986 -2987 0
-2210 -2463 -2983 -2984 -2985 -2986 -2987 0
-26 -2463 -2983 -2984 -2985 -2986 -2987 0
-38 -2463 -2983 -2984 -2985 -2986 -2987 0
-2463 -2983 -2984 -2985 -2986 -2987 0
-28 2988 0
-40 2988 0
2212 2988 0
2465 2988 0
28 40 -2212 -2465 -2988 0
-28 2989 0
40 2989 0
-2212 2989 0
2465 2989 0
28 -40 2212 -2465 -2989 0
-28 2990 0
40 2990 0
2212 2990 0
-2465 2990 0
28 -40 -2212 2465 -2990 0
28 2991 0
-40 2991 0
-2212 2991 0
2465 2991 0
-28 40 2212 -2465 -2991 0
28 2992 0
-40 2992 0
2212 2992 0
-2465 2992 0
-28 40 -2212 2465 -2992 0
28 -40 -2988 -2989 -2990 -2991 -2992 0
28 -2212 -2988 -2989 -2990 -2991 -2992 0
28 -2465 -2988 -2989 -2990 -2991 -2992 0
-28 40 -2988 -2989 -2990 -2991 -2992 0
40 -2212 -2988 -2989 -2990 -2991 -2992 0
40 -2465 -2988 -2989 -2990 -2991 -2992 0
-28 -2212 -2988 -2989 -2990 -2991 -2992 0
-40 -2212 -2988 -2989 -2990 -2991 -2992 0
-2212 -2988 -2989 -2990 -2991 -2992 0
-2212 -2465 -2988 -2989 -2990 -2991 -2992 0
-28 -2465 -2988 -2989 -2990 -2991 -2992 0
-40 -2465 -2988 -2989 -2990 -2991 -2992 0
-2465 -2988 -2989 -2990 -2991 -2992 0
-29 2993 0
-41 2993 0
2213 2993 0
2466 2993 0
29 41 -2213 -2466 -2993 0
-29 2994 0
41 2994 0
-2213 2994 0
2466 2994 0
29 -41 2213 -2466 -2994 0
-29 2995 0
41 2995 0
2213 2995 0
-2466 2995 0
29 -41 -2213 2466 -2995 0
29 2996 0
-41 2996 0
-2213 2996 0
2466 2996 0
-29 41 2213 -2466 -2996 0
29 2997 0
-41 2997 0
2213 2997 0
-2466 2997 0
-29 41 -2213 2466 -2997 0
29 -41 -2993 -2994 -2995 -2996 -2997 0
29 -2213 -2993 -2994 -2995 -2996 -2997 0
29 -2466 -2993 -2994 -2995 -2996 -2997 0
-29 41 -2993 -2994 -2995 -2996 -2997 0
41 -2213 -2993 -2994 -2995 -2996 -2997 0
41 -2466 -2993 -2994 -2995 -2996 -2997 0
-29 -2213 -2993 -2994 -2995 -2996 -2997 0
-41 -2213 -2993 -2994 -2995 -2996 -2997 0
-2213 -2993 -2994 -2995 -2996 -2997 0
-2213 -2466 -2993 -2994 -2995 -2996 -2997 0
-29 -2466 -2993 -2994 -2995 -2996 -2997 0
-41 -2466 -2993 -2994 -2995 -2996 -2997 0
-2466 -2993 -2994 -2995 -2996 -2997 0
-37 2998 0
-49 2998 0
37 49 -2998 0
2999 -2998 0
-2999 2998 0
-39 3000 0
-51 3000 0
-2999 3000 0
39 51 2999 -3000 0
3001 -3000 0
3000 -3001 0
-39 -2999 0
-51 -2999 0
38 -50 0
-38 50 0
52 -40 0
40 -52 0
53 -41 0
41 -53 0
-49 3002 0
-61 3002 0
-2221 3002 0
-2474 3002 0
49 61 2221 2474 -3002 0
3003 -3002 0
-3003 3002 0
-51 3004 0
-63 3004 0
-2223 3004 0
-2476 3004 0
-3003 3004 0
51 63 2223 2476 3003 -3004 0
3005 -3004 0
3004 -3005 0
-51 -3003 0
-63 -3003 0
-2223 -3003 0
-2476 -3003 0
-50 3006 0
-62 3006 0
2222 3006 0
2475 3006 0
50 62 -2222 -2475 -3006 0
-50 3007 0
62 3007 0
-2222 3007 0
2475 3007 0
50 -62 2222 -2475 -3007 0
-50 3008 0
62 3008 0
2222 3008 0
-2475 3008 0
50 -62 -2222 2475 -3008 0
50 3009 0
-62 3009 0
-2222 3009 0
2475 3009 0
-50 62 2222 -2475 -3009 0
50 3010 0
-62 3010 0
2222 3010 0
-2475 3010 0
-50 62 -2222 2475 -3010 0
50 -62 -3006 -3007 -3008 -3009 -3010 0
50 -2222 -3006 -3007 -3008 -3009 -3010 0
50 -2475 -3006 -3007 -3008 -3009 -3010 0
-50 62 -3006 -3007 -3008 -3009 -3010 0
62 -2222 -3006 -3007 -3008 -3009 -3010 0
62 -2475 -3006 -3007 -3008 -3009 -3010 0
-50 -2222 -3006 -3007 -3008 -3009 -3010 0
-62 -2222 -3006 -3007 -3008 -3009 -3010 0
-2222 -3006 -3007 -3008 -3009 -3010 0
-2222 -2475 -3006 -3007 -3008 -3009 -3010 0
-50 -2475 -3006 -3007 -3008 -3009 -3010 0
-62 -2475 -3006 -3007 -3008 -3009 -3010 0
-2475 -3006 -3007 -3008 -3009 -3010 0
-52 3011 0
-64 3011 0
2224 3011 0
2477 3011 0
52 64 -2224 -2477 -3011 0
-52 3012 0
64 3012 0
-2224 3012 0
2477 3012 0
52 -64 2224 -2477 -3012 0
-52 3013 0
64 3013 0
2224 3013 0
-2477 3013 0
52 -64 -2224 2477 -3013 0
52 3014 0
-64 3014 0
-2224 3014 0
2477 3014 0
-52 64 2224 -2477 -3014 0
52 3015 0
-64 3015 0
2224 3015 0
-2477 3015 0
-52 64 -2224 2477 -3015 0
52 -64 -3011 -3012 -3013 -3014 -3015 0
52 -2224 -3011 -3012 -3013 -3014 -3015 0
52 -2477 -3011 -3012 -3013 -3014 -3015 0
-52 64 -3011 -3012 -3013 -3014 -3015 0
64 -2224 -3011 -3012 -3013 -3014 -3015 0
64 -2477 -3011 -3012 -3013 -3014 -3015 0
-52 -2224 -3011 -3012 -3013 -3014 -3015 0
-64 -2224 -3011 -3012 -3013 -3014 -3015 0
-2224 -3011 -3012 -3013 -3014 -3015 0
-2224 -2477 -3011 -3012 -3013 -3014 -3015 0
-52 -2477 -3011 -3012 -3013 -3014 -3015 0
-64 -2477 -3011 -3012 -3013 -3014 -3015 0
-2477 -3011 -3012 -3013 -3014 -3015 0
-53 3016 0
-65 3016 0
2225 3016 0
2478 3016 0
53 65 -2225 -2478 -3016 0
-53 3017 0
65 3017 0
-2225 3017 0
2478 3017 0
53 -65 2225 -2478 -3017 0
-53 3018 0
65 3018 0
2225 3018 0
-2478 3018 0
53 -65 -2225 2478 -3018 0
53 3019 0
-65 3019 0
-2225 3019 0
2478 3019 0
-53 65 2225 -2478 -3019 0
53 3020 0
-65 3020 0
2225 3020 0
-2478 3020 0
-53 65 -2225 2478 -3020 0
53 -65 -3016 -3017 -3018 -3019 -3020 0
53 -2225 -3016 -3017 -3018 -3019 -3020 0
53 -2478 -3016 -3017 -3018 -3019 -3020 0
-53 65 -3016 -3017 -3018 -3019 -3020 0
65 -2225 -3016 -3017 -3018 -3019 -3020 0
65 -2478 -3016 -3017 -3018 -3019 -3020 0
-53 -2225 -3016 -3017 -3018 -3019 -3020 0
-65 -2225 -3016 -3017 -3018 -3019 -3020 0
-2225 -3016 -3017 -3018 -3019 -3020 0
-2225 -2478 -3016 -3017 -3018 -3019 -3020 0
-53 -2478 -3016 -3017 -3018 -3019 -3020 0
-65 -2478 -3016 -3017 -3018 -3019 -3020 0
-2478 -3016 -3017 -3018 -3019 -3020 0
3021 -61 0
61 -3021 0
-63 3022 0
-3021 3022 0
63 3021 -3022 0
3023 -3022 0
3022 -3023 0
-63 -3021 0
-62 0
-64 0
-65 0
3024 -73 0
73 -3024 0
-75 3025 0
-3024 3025 0
75 3024 -3025 0
3026 -3025 0
3025 -3026 0
-75 -3024 0
-74 0
-76 0
-77 0
-73 3027 0
-85 3027 0
-2233 3027 0
-2486 3027 0
73 85 2233 2486 -3027 0
3028 -3027 0
-3028 3027 0
-75 3029 0
-87 3029 0
-2235 3029 0
-2488 3029 0
-3028 3029 0
75 87 2235 2488 3028 -3029 0
3030 -3029 0
3029 -3030 0
-75 -3028 0
-87 -3028 0
-2235 -3028 0
-2488 -3028 0
-74 3031 0
-86 3031 0
2234 3031 0
2487 3031 0
74 86 -2234 -2487 -3031 0
-74 3032 0
86 3032 0
-2234 3032 0
2487 3032 0
74 -86 2234 -2487 -3032 0
-74 3033 0
86 3033 0
2234 3033 0
-2487 3033 0
74 -86 -2234 2487 -3033 0
74 3034 0
-86 3034 0
-2234 3034 0
2487 3034 0
-74 86 2234 -2487 -3034 0
74 3035 0
-86 3035 0
2234 3035 0
-2487 3035 0
-74 86 -2234 2487 -3035 0
74 -86 -3031 -3032 -3033 -3034 -3035 0
74 -2234 -3031 -3032 -3033 -3034 -3035 0
74 -2487 -3031 -3032 -3033 -3034 -3035 0
-74 86 -3031 -3032 -3033 -3034 -3035 0
86 -2234 -3031 -3032 -3033 -3034 -3035 0
86 -2487 -3031 -3032 -3033 -3034 -3035 0
-74 -2234 -3031 -3032 -3033 -3034 -3035 0
-86 -2234 -3031 -3032 -3033 -3034 -3035 0
-2234 -3031 -3032 -3033 -3034 -3035 0
-2234 -2487 -3031 -3032 -3033 -3034 -3035 0
-74 -2487 -3031 -3032 -3033 -3034 -3035 0
-86 -2487 -3031 -3032 -3033 -3034 -3035 0
-2487 -3031 -3032 -3033 -3034 -3035 0
-76 3036 0
-88 3036 0
2236 3036 0
2489 3036 0
76 88 -2236 -2489 -3036 0
-76 3037 0
88 3037 0
-2236 3037 0
2489 3037 0
76 -88 2236 -2489 -3037 0
-76 3038 0
88 3038 0
2236 3038 0
-2489 3038 0
76 -88 -2236 2489 -3038 0
76 3039 0
-88 3039 0
-2236 3039 0
2489 3039 0
-76 88 2236 -2489 -3039 0
76 3040 0
-88 3040 0
2236 3040 0
-2489 3040 0
-76 88 -2236 2489 -3040 0
76 -88 -3036 -3037 -3038 -3039 -3040 0
76 -2236 -3036 -3037 -3038 -3039 -3040 0
76 -2489 -3036 -3037 -3038 -3039 -3040 0
-76 88 -3036 -3037 -3038 -3039 -3040 0
88 -2236 -3036 -3037 -3038 -3039 -3040 0
88 -2489 -3036 -3037 -3038 -3039 -3040 0
-76 -2236 -3036 -3037 -3038 -3039 -3040 0
-88 -2236 -3036 -3037 -3038 -3039 -3040 0
-2236 -3036 -3037 -3038 -3039 -3040 0
-2236 -2489 -3036 -3037 -3038 -3039 -3040 0
-76 -2489 -3036 -3037 -3038 -3039 -3040 0
-88 -2489 -3036 -3037 -3038 -3039 -3040 0
-2489 -3036 -3037 -3038 -3039 -3040 0
-77 3041 0
-89 3041 0
2237 3041 0
2490 3041 0
77 89 -2237 -2490 -3041 0
-77 3042 0
89 3042 0
-2237 3042 0
2490 3042 0
77 -89 2237 -2490 -3042 0
-77 3043 0
89 3043 0
2237 3043 0
-2490 3043 0
77 -89 -2237 2490 -3043 0
77 3044 0
-89 3044 0
-2237 3044 0
2490 3044 0
-77 89 2237 -2490 -3044 0
77 3045 0
-89 3045 0
2237 3045 0
-2490 3045 0
-77 89 -2237 2490 -3045 0
77 -89 -3041 -3042 -3043 -3044 -3045 0
77 -2237 -3041 -3042 -3043 -3044 -3045 0
77 -2490 -3041 -3042 -3043 -3044 -3045 0
-77 89 -3041 -3042 -3043 -3044 -3045 0
89 -2237 -3041 -3042 -3043 -3044 -3045 0
89 -2490 -3041 -3042 -3043 -3044 -3045 0
-77 -2237 -3041 -3042 -3043 -3044 -3045 0
-89 -2237 -3041 -3042 -3043 -3044 -3045 0
-2237 -3041 -3042 -3043 -3044 -3045 0
-2237 -2490 -3041 -3042 -3043 -3044 -3045 0
-77 -2490 -3041 -3042 -3043 -3044 -3045 0
-89 -2490 -3041 -3042 -3043 -3044 -3045 0
-2490 -3041 -3042 -3043 -3044 -3045 0
-85 3046 0
-97 3046 0
85 97 -3046 0
3047 -3046 0
-3047 3046 0
-87 3048 0
-99 3048 0
-3047 3048 0
87 99 3047 -3048 0
3049 -3048 0
3048 -3049 0
-87 -3047 0
-99 -3047 0
86 -98 0
-86 98 0
100 -88 0
88 -100 0
101 -89 0
89 -101 0
-97 3050 0
-109 3050 0
-2245 3050 0
-2497 3050 0
97 109 2245 2497 -3050 0
3051 -3050 0
-3051 3050 0
-99 3052 0
-111 3052 0
-2247 3052 0
-2499 3052 0
-3051 3052 0
99 111 2247 2499 3051 -3052 0
3053 -3052 0
3052 -3053 0
-99 -3051 0
-111 -3051 0
-2247 -3051 0
-2499 -3051 0
-98 3054 0
-110 3054 0
2246 3054 0
2498 3054 0
98 110 -2246 -2498 -3054 0
-98 3055 0
110 3055 0
-2246 3055 0
2498 3055 0
98 -110 2246 -2498 -3055 0
-98 3056 0
110 3056 0
2246 3056 0
-2498 3056 0
98 -110 -2246 2498 -3056 0
98 3057 0
-110 3057 0
-2246 3057 0
2498 3057 0
-98 110 2246 -2498 -3057 0
98 3058 0
-110 3058 0
2246 3058 0
-2498 3058 0
-98 110 -2246 2498 -3058 0
98 -110 -3054 -3055 -3056 -3057 -3058 0
98 -2246 -3054 -3055 -3056 -3057 -3058 0
98 -2498 -3054 -3055 -3056 -3057 -3058 0
-98 110 -3054 -3055 -3056 -3057 -3058 0
110 -2246 -3054 -3055 -3056 -3057 -3058 0
110 -2498 -3054 -3055 -3056 -3057 -3058 0
-98 -2246 -3054 -3055 -3056 -3057 -3058 0
-110 -2246 -3054 -3055 -3056 -3057 -3058 0
-2246 -3054 -3055 -3056 -3057 -3058 0
-2246 -2498 -3054 -3055 -3056 -3057 -3058 0
-98 -2498 -3054 -3055 -3056 -3057 -3058 0
-110 -2498 -3054 -3055 -3056 -3057 -3058 0
-2498 -3054 -3055 -3056 -3057 -3058 0
-100 3059 0
-112 3059 0
2248 3059 0
2500 3059 0
100 112 -2248 -2500 -3059 0
-100 3060 0
112 3060 0
-2248 3060 0
2500 3060 0
100 -112 2248 -2500 -3060 0
-100 3061 0
112 3061 0
2248 3061 0
-2500 3061 0
100 -112 -2248 2500 -3061 0
100 3062 0
-112 3062 0
-2248 3062 0
2500 3062 0
-100 112 2248 -2500 -3062 0
100 3063 0
-112 3063 0
2248 3063 0
-2500 3063 0
-100 112 -2248 2500 -3063 0
100 -112 -3059 -3060 -3061 -3062 -3063 0
100 -2248 -3059 -3060 -3061 -3062 -3063 0
100 -2500 -3059 -3060 -3061 -3062 -3063 0
-100 112 -3059 -3060 -3061 -3062 -3063 0
112 -2248 -3059 -3060 -3061 -3062 -3063 0
112 -2500 -3059 -3060 -3061 -3062 -3063 0
-100 -2248 -3059 -3060 -3061 -3062 -3063 0
-112 -2248 -3059 -3060 -3061 -3062 -3063 0
-2248 -3059 -3060 -3061 -3062 -3063 0
-2248 -2500 -3059 -3060 -3061 -3062 -3063 0
-100 -2500 -3059 -3060 -3061 -3062 -3063 0
-112 -2500 -3059 -3060 -3061 -3062 -3063 0
-2500 -3059 -3060 -3061 -3062 -3063 0
-101 3064 0
-113 3064 0
2249 3064 0
2501 3064 0
101 113 -2249 -2501 -3064 0
-101 3065 0
113 3065 0
-2249 3065 0
2501 3065 0
101 -113 2249 -2501 -3065 0
-101 3066 0
113 3066 0
2249 3066 0
-2501 3066 0
101 -113 -2249 2501 -3066 0
101 3067 0
-113 3067 0
-2249 3067 0
2501 3067 0
-101 113 2249 -2501 -3067 0
101 3068 0
-113 3068 0
2249 3068 0
-2501 3068 0
-101 113 -2249 2501 -3068 0
101 -113 -3064 -3065 -3066 -3067 -3068 0
101 -2249 -3064 -3065 -3066 -3067 -3068 0
101 -2501 -3064 -3065 -3066 -3067 -3068 0
-101 113 -3064 -3065 -3066 -3067 -3068 0
113 -2249 -3064 -3065 -3066 -3067 -3068 0
113 -2501 -3064 -3065 -3066 -3067 -3068 0
-101 -2249 -3064 -3065 -3066 -3067 -3068 0
-113 -2249 -3064 -3065 -3066 -3067 -3068 0
-2249 -3064 -3065 -3066 -3067 -3068 0
-2249 -2501 -3064 -3065 -3066 -3067 -3068 0
-101 -2501 -3064 -3065 -3066 -3067 -3068 0
-113 -2501 -3064 -3065 -3066 -3067 -3068 0
-2501 -3064 -3065 -3066 -3067 -3068 0
-109 3069 0
-121 3069 0
109 121 -3069 0
3070 -3069 0
-3070 3069 0
-111 3071 0
-123 3071 0
-3070 3071 0
111 123 3070 -3071 0
3072 -3071 0
3071 -3072 0
-111 -3070 0
-123 -3070 0
110 -122 0
-110 122 0
124 -112 0
112 -124 0
125 -113 0
113 -125 0
-121 3073 0
-133 3073 0
-2257 3073 0
-2509 3073 0
121 133 2257 2509 -3073 0
3074 -3073 0
-3074 3073 0
-123 3075 0
-135 3075 0
-2259 3075 0
-2511 3075 0
-3074 3075 0
123 135 2259 2511 3074 -3075 0
3076 -3075 0
3075 -3076 0
-123 -3074 0
-135 -3074 0
-2259 -3074 0
-2511 -3074 0
-122 3077 0
-134 3077 0
2258 3077 0
2510 3077 0
122 134 -2258 -2510 -3077 0
-122 3078 0
134 3078 0
-2258 3078 0
2510 3078 0
122 -134 2258 -2510 -3078 0
-122 3079 0
134 3079 0
2258 3079 0
-2510 3079 0
122 -134 -2258 2510 -3079 0
122 3080 0
-134 3080 0
-2258 3080 0
2510 3080 0
-122 134 2258 -2510 -3080 0
122 3081 0
-134 3081 0
2258 3081 0
-2510 3081 0
-122 134 -2258 2510 -3081 0
122 -134 -3077 -3078 -3079 -3080 -3081 0
122 -2258 -3077 -3078 -3079 -3080 -3081 0
122 -2510 -3077 -3078 -3079 -3080 -3081 0
-122 134 -3077 -3078 -3079 -3080 -3081 0
134 -2258 -3077 -3078 -3079 -3080 -3081 0
134 -2510 -3077 -3078 -3079 -3080 -3081 0
-122 -2258 -3077 -3078 -3079 -3080 -3081 0
-134 -2258 -3077 -3078 -3079 -3080 -3081 0
-2258 -3077 -3078 -3079 -3080 -3081 0
-2258 -2510 -3077 -3078 -3079 -3080 -3081 0
-122 -2510 -3077 -3078 -3079 -3080 -3081 0
-134 -2510 -3077 -3078 -3079 -3080 -3081 0
-2510 -3077 -3078 -3079 -3080 -3081 0
-124 3082 0
-136 3082 0
2260 3082 0
2512 3082 0
124 136 -2260 -2512 -3082 0
-124 3083 0
136 3083 0
-2260 3083 0
2512 3083 0
124 -136 2260 -2512 -3083 0
-124 3084 0
136 3084 0
2260 3084 0
-2512 3084 0
124 -136 -2260 2512 -3084 0
124 3085 0
-136 3085 0
-2260 3085 0
2512 3085 0
-124 136 2260 -2512 -3085 0
124 3086 0
-136 3086 0
2260 3086 0
-2512 3086 0
-124 136 -2260 2512 -3086 0
124 -136 -3082 -3083 -3084 -3085 -3086 0
124 -2260 -3082 -3083 -3084 -3085 -3086 0
124 -2512 -3082 -3083 -3084 -3085 -3086 0
-124 136 -3082 -3083 -3084 -3085 -3086 0
136 -2260 -3082 -3083 -3084 -3085 -3086 0
136 -2512 -3082 -3083 -3084 -3085 -3086 0
-124 -2260 -3082 -3083 -3084 -3085 -3086 0
-136 -2260 -3082 -3083 -3084 -3085 -3086 0
-2260 -3082 -3083 -3084 -3085 -3086 0
-2260 -2512 -3082 -3083 -3084 -3085 -3086 0
-124 -2512 -3082 -3083 -3084 -3085 -3086 0
-136 -2512 -3082 -3083 -3084 -3085 -3086 0
-2512 -3082 -3083 -3084 -3085 -3086 0
-125 3087 0
-137 3087 0
2261 3087 0
2513 3087 0
125 137 -2261 -2513 -3087 0
-125 3088 0
137 3088 0
-2261 3088 0
2513 3088 0
125 -137 2261 -2513 -3088 0
-125 3089 0
137 3089 0
2261 3089 0
-2513 3089 0
125 -137 -2261 2513 -3089 0
125 3090 0
-137 3090 0
-2261 3090 0
2513 3090 0
-125 137 2261 -2513 -3090 0
125 3091 0
-137 3091 0
2261 3091 0
-2513 3091 0
-125 137 -2261 2513 -3091 0
125 -137 -3087 -3088 -3089 -3090 -3091 0
125 -2261 -3087 -3088 -3089 -3090 -3091 0
125 -2513 -3087 -3088 -3089 -3090 -3091 0
-125 137 -3087 -3088 -3089 -3090 -3091 0
137 -2261 -3087 -3088 -3089 -3090 -3091 0
137 -2513 -3087 -3088 -3089 -3090 -3091 0
-125 -2261 -3087 -3088 -3089 -3090 -3091 0
-137 -2261 -3087 -3088 -3089 -3090 -3091 0
-2261 -3087 -3088 -3089 -3090 -3091 0
-2261 -2513 -3087 -3088 -3089 -3090 -3091 0
-125 -2513 -3087 -3088 -3089 -3090 -3091 0
-137 -2513 -3087 -3088 -3089 -3090 -3091 0
-2513 -3087 -3088 -3089 -3090 -3091 0
3092 -133 0
133 -3092 0
-135 3093 0
-3092 3093 0
135 3092 -3093 0
3094 -3093 0
3093 -3094 0
-135 -3092 0
-134 0
-136 0
-137 0
3095 -145 0
145 -3095 0
-147 3096 0
-3095 3096 0
147 3095 -3096 0
3097 -3096 0
3096 -3097 0
-147 -3095 0
-146 0
-148 0
-149 0
-145 3098 0
-157 3098 0
-2269 3098 0
-2522 3098 0
145 157 2269 2522 -3098 0
3099 -3098 0
-3099 3098 0
-147 3100 0
-159 3100 0
-2271 3100 0
-2524 3100 0
-3099 3100 0
147 159 2271 2524 3099 -3100 0
3101 -3100 0
3100 -3101 0
-147 -3099 0
-159 -3099 0
-2271 -3099 0
-2524 -3099 0
-146 3102 0
-158 3102 0
2270 3102 0
2523 3102 0
146 158 -2270 -2523 -3102 0
-146 3103 0
158 3103 0
-2270 3103 0
2523 3103 0
146 -158 2270 -2523 -3103 0
-146 3104 0
158 3104 0
2270 3104 0
-2523 3104 0
146 -158 -2270 2523 -3104 0
146 3105 0
-158 3105 0
-2270 3105 0
2523 3105 0
-146 158 2270 -2523 -3105 0
146 3106 0
-158 3106 0
2270 3106 0
-2523 3106 0
-146 158 -2270 2523 -3106 0
146 -158 -3102 -3103 -3104 -3105 -3106 0
146 -2270 -3102 -3103 -3104 -3105 -3106 0
146 -2523 -3102 -3103 -3104 -3105 -3106 0
-146 158 -3102 -3103 -3104 -3105 -3106 0
158 -2270 -3102 -3103 -3104 -3105 -3106 0
158 -2523 -3102 -3103 -3104 -3105 -3106 0
-146 -2270 -3102 -3103 -3104 -3105 -3106 0
-158 -2270 -3102 -3103 -3104 -3105 -3106 0
-2270 -3102 -3103 -3104 -3105 -3106 0
-2270 -2523 -3102 -3103 -3104 -3105 -3106 0
-146 -2523 -3102 -3103 -3104 -3105 -3106 0
-158 -2523 -3102 -3103 -3104 -3105 -3106 0
-2523 -3102 -3103 -3104 -3105 -3106 0
-148 3107 0
-160 3107 0
2272 3107 0
2525 3107 0
148 160 -2272 -2525 -3107 0
-148 3108 0
160 3108 0
-2272 3108 0
2525 3108 0
148 -160 2272 -2525 -3108 0
-148 3109 0
160 3109 0
2272 3109 0
-2525 3109 0
148 -160 -2272 2525 -3109 0
148 3110 0
-160 3110 0
-2272 3110 0
2525 3110 0
-148 160 2272 -2525 -3110 0
148 3111 0
-160 3111 0
2272 3111 0
-2525 3111 0
-148 160 -2272 2525 -3111 0
148 -160 -3107 -3108 -3109 -3110 -3111 0
148 -2272 -3107 -3108 -3109 -3110 -3111 0
148 -2525 -3107 -3108 -3109 -3110 -3111 0
-148 160 -3107 -3108 -3109 -3110 -3111 0
160 -2272 -3107 -3108 -3109 -3110 -3111 0
160 -2525 -3107 -3108 -3109 -3110 -3111 0
-148 -2272 -3107 -3108 -3109 -3110 -3111 0
-160 -2272 -3107 -3108 -3109 -3110 -3111 0
-2272 -3107 -3108 -3109 -3110 -3111 0
-2272 -2525 -3107 -3108 -3109 -3110 -3111 0
-148 -2525 -3107 -3108 -3109 -3110 -3111 0
-160 -2525 -3107 -3108 -3109 -3110 -3111 0
-2525 -3107 -3108 -3109 -3110 -3111 0
-149 3112 0
-161 3112 0
2273 3112 0
2526 3112 0
149 161 -2273 -2526 -3112 0
-149 3113 0
161 3113 0
-2273 3113 0
2526 3113 0
149 -161 2273 -2526 -3113 0
-149 3114 0
161 3114 0
2273 3114 0
-2526 3114 0
149 -161 -2273 2526 -3114 0
149 3115 0
-161 3115 0
-2273 3115 0
2526 3115 0
-149 161 2273 -2526 -3115 0
149 3116 0
-161 3116 0
2273 3116 0
-2526 3116 0
-149 161 -2273 2526 -3116 0
149 -161 -3112 -3113 -3114 -3115 -3116 0
149 -2273 -3112 -3113 -3114 -3115 -3116 0
149 -2526 -3112 -3113 -3114 -3115 -3116 0
-149 161 -3112 -3113 -3114 -3115 -3116 0
161 -2273 -3112 -3113 -3114 -3115 -3116 0
161 -2526 -3112 -3113 -3114 -3115 -3116 0
-149 -2273 -3112 -3113 -3114 -3115 -3116 0
-161 -2273 -3112 -3113 -3114 -3115 -3116 0
-2273 -3112 -3113 -3114 -3115 -3116 0
-2273 -2526 -3112 -3113 -3114 -3115 -3116 0
-149 -2526 -3112 -3113 -3114 -3115 -3116 0
-161 -2526 -3112 -3113 -3114 -3115 -3116 0
-2526 -3112 -3113 -3114 -3115 -3116 0
-157 3117 0
-169 3117 0
157 169 -3117 0
3118 -3117 0
-3118 3117 0
-159 3119 0
-171 3119 0
-3118 3119 0
159 171 3118 -3119 0
3120 -3119 0
3119 -3120 0
-159 -3118 0
-171 -3118 0
158 -170 0
-158 170 0
172 -160 0
160 -172 0
173 -161 0
161 -173 0
-169 3121 0
-181 3121 0
-2281 3121 0
-2533 3121 0
169 181 2281 2533 -3121 0
3122 -3121 0
-3122 3121 0
-171 3123 0
-183 3123 0
-2283 3123 0
-2535 3123 0
-3122 3123 0
171 183 2283 2535 3122 -3123 0
3124 -3123 0
3123 -3124 0
-171 -3122 0
-183 -3122 0
-2283 -3122 0
-2535 -3122 0
-170 3125 0
-182 3125 0
2282 3125 0
2534 3125 0
170 182 -2282 -2534 -3125 0
-170 3126 0
182 3126 0
-2282 3126 0
2534 3126 0
170 -182 2282 -2534 -3126 0
-170 3127 0
182 3127 0
2282 3127 0
-2534 3127 0
170 -182 -2282 2534 -3127 0
170 3128 0
-182 3128 0
-2282 3128 0
2534 3128 0
-170 182 2282 -2534 -3128 0
170 3129 0
-182 3129 0
2282 3129 0
-2534 3129 0
-170 182 -2282 2534 -3129 0
170 -182 -3125 -3126 -3127 -3128 -3129 0
170 -2282 -3125 -3126 -3127 -3128 -3129 0
170 -2534 -3125 -3126 -3127 -3128 -3129 0
-170 182 -3125 -3126 -3127 -3128 -3129 0
182 -2282 -3125 -3126 -3127 -3128 -3129 0
182 -2534 -3125 -3126 -3127 -3128 -3129 0
-170 -2282 -3125 -3126 -3127 -3128 -3129 0
-182 -2282 -3125 -3126 -3127 -3128 -3129 0
-2282 -3125 -3126 -3127 -3128 -3129 0
-2282 -2534 -3125 -3126 -3127 -3128 -3129 0
-170 -2534 -3125 -3126 -3127 -3128 -3129 0
-182 -2534 -3125 -3126 -3127 -3128 -3129 0
-2534 -3125 -3126 -3127 -3128 -3129 0
-172 3130 0
-184 3130 0
2284 3130 0
2536 3130 0
172 184 -2284 -2536 -3130 0
-172 3131 0
184 3131 0
-2284 3131 0
2536 3131 0
172 -184 2284 -2536 -3131 0
-172 3132 0
184 3132 0
2284 3132 0
-2536 3132 0
172 -184 -2284 2536 -3132 0
172 3133 0
-184 3133 0
-2284 3133 0
2536 3133 0
-172 184 2284 -2536 -3133 0
172 3134 0
-184 3134 0
2284 3134 0
-2536 3134 0
-172 184 -2284 2536 -3134 0
172 -184 -3130 -3131 -3132 -3133 -3134 0
172 -2284 -3130 -3131 -3132 -3133 -3134 0
172 -2536 -3130 -3131 -3132 -3133 -3134 0
-172 184 -3130 -3131 -3132 -3133 -3134 0
184 -2284 -3130 -3131 -3132 -3133 -3134 0
184 -2536 -3130 -3131 -3132 -3133 -3134 0
-172 -2284 -3130 -3131 -3132 -3133 -3134 0
-184 -2284 -3130 -3131 -3132 -3133 -3134 0
-2284 -3130 -3131 -3132 -3133 -3134 0
-2284 -2536 -3130 -3131 -3132 -3133 -3134 0
-172 -2536 -3130 -3131 -3132 -3133 -3134 0
-184 -2536 -3130 -3131 -3132 -3133 -3134 0
-2536 -3130 -3131 -3132 -3133 -3134 0
-173 3135 0
-185 3135 0
2285 3135 0
2537 3135 0
173 185 -2285 -2537 -3135 0
-173 3136 0
185 3136 0
-2285 3136 0
2537 3136 0
173 -185 2285 -2537 -3136 0
-173 3137 0
185 3137 0
2285 3137 0
-2537 3137 0
173 -185 -2285 2537 -3137 0
173 3138 0
-185 3138 0
-2285 3138 0
2537 3138 0
-173 185 2285 -2537 -3138 0
173 3139 0
-185 3139 0
2285 3139 0
-2537 3139 0
-173 185 -2285 2537 -3139 0
173 -185 -3135 -3136 -3137 -3138 -3139 0
173 -2285 -3135 -3136 -3137 -3138 -3139 0
173 -2537 -3135 -3136 -3137 -3138 -3139 0
-173 185 -3135 -3136 -3137 -3138 -3139 0
185 -2285 -3135 -3136 -3137 -3138 -3139 0
185 -2537 -3135 -3136 -3137 -3138 -3139 0
-173 -2285 -3135 -3136 -3137 -3138 -3139 0
-185 -2285 -3135 -3136 -3137 -3138 -3139 0
-2285 -3135 -3136 -3137 -3138 -3139 0
-2285 -2537 -3135 -3136 -3137 -3138 -3139 0
-173 -2537 -3135 -3136 -3137 -3138 -3139 0
-185 -2537 -3135 -3136 -3137 -3138 -3139 0
-2537 -3135 -3136 -3137 -3138 -3139 0
-181 3140 0
-193 3140 0
181 193 -3140 0
3141 -3140 0
-3141 3140 0
-183 3142 0
-195 3142 0
-3141 3142 0
183 195 3141 -3142 0
3143 -3142 0
3142 -3143 0
-183 -3141 0
-195 -3141 0
182 -194 0
-182 194 0
196 -184 0
184 -196 0
197 -185 0
185 -197 0
-193 3144 0
-205 3144 0
-2293 3144 0
-2545 3144 0
193 205 2293 2545 -3144 0
3145 -3144 0
-3145 3144 0
-195 3146 0
-207 3146 0
-2295 3146 0
-2547 3146 0
-3145 3146 0
195 207 2295 2547 3145 -3146 0
3147 -3146 0
3146 -3147 0
-195 -3145 0
-207 -3145 0
-2295 -3145 0
-2547 -3145 0
-194 3148 0
-206 3148 0
2294 3148 0
2546 3148 0
194 206 -2294 -2546 -3148 0
-194 3149 0
206 3149 0
-2294 3149 0
2546 3149 0
194 -206 2294 -2546 -3149 0
-194 3150 0
206 3150 0
2294 3150 0
-2546 3150 0
194 -206 -2294 2546 -3150 0
194 3151 0
-206 3151 0
-2294 3151 0
2546 3151 0
-194 206 2294 -2546 -3151 0
194 3152 0
-206 3152 0
2294 3152 0
-2546 3152 0
-194 206 -2294 2546 -3152 0
194 -206 -3148 -3149 -3150 -3151 -3152 0
194 -2294 -3148 -3149 -3150 -3151 -3152 0
194 -2546 -3148 -3149 -3150 -3151 -3152 0
-194 206 -3148 -3149 -3150 -3151 -3152 0
206 -2294 -3148 -3149 -3150 -3151 -3152 0
206 -2546 -3148 -3149 -3150 -3151 -3152 0
-194 -2294 -3148 -3149 -3150 -3151 -3152 0
-206 -2294 -3148 -3149 -3150 -3151 -3152 0
-2294 -3148 -3149 -3150 -3151 -3152 0
-2294 -2546 -3148 -3149 -3150 -3151 -3152 0
-194 -2546 -3148 -3149 -3150 -3151 -3152 0
-206 -2546 -3148 -3149 -3150 -3151 -3152 0
-2546 -3148 -3149 -3150 -3151 -3152 0
-196 3153 0
-208 3153 0
2296 3153 0
2548 3153 0
196 208 -2296 -2548 -3153 0
-196 3154 0
208 3154 0
-2296 3154 0
2548 3154 0
196 -208 2296 -2548 -3154 0
-196 3155 0
208 3155 0
2296 3155 0
-2548 3155 0
196 -208 -2296 2548 -3155 0
196 3156 0
-208 3156 0
-2296 3156 0
2548 3156 0
-196 208 2296 -2548 -3156 0
196 3157 0
-208 3157 0
2296 3157 0
-2548 3157 0
-196 208 -2296 2548 -3157 0
196 -208 -3153 -3154 -3155 -3156 -3157 0
196 -2296 -3153 -3154 -3155 -3156 -3157 0
196 -2548 -3153 -3154 -3155 -3156 -3157 0
-196 208 -3153 -3154 -3155 -3156 -3157 0
208 -2296 -3153 -3154 -3155 -3156 -3157 0
208 -2548 -3153 -3154 -3155 -3156 -3157 0
-196 -2296 -3153 -3154 -3155 -3156 -3157 0
-208 -2296 -3153 -3154 -3155 -3156 -3157 0
-2296 -3153 -3154 -3155 -3156 -3157 0
-2296 -2548 -3153 -3154 -3155 -3156 -3157 0
-196 -2548 -3153 -3154 -3155 -3156 -3157 0
-208 -2548 -3153 -3154 -3155 -3156 -3157 0
-2548 -3153 -3154 -3155 -3156 -3157 0
-197 3158 0
-209 3158 0
2297 3158 0
2549 3158 0
197 209 -2297 -2549 -3158 0
-197 3159 0
209 3159 0
-2297 3159 0
2549 3159 0
197 -209 2297 -2549 -3159 0
-197 3160 0
209 3160 0
2297 3160 0
-2549 3160 0
197 -209 -2297 2549 -3160 0
197 3161 0
-209 3161 0
-2297 3161 0
2549 3161 0
-197 209 2297 -2549 -3161 0
197 3162 0
-209 3162 0
2297 3162 0
-2549 3162 0
-197 209 -2297 2549 -3162 0
197 -209 -3158 -3159 -3160 -3161 -3162 0
197 -2297 -3158 -3159 -3160 -3161 -3162 0
197 -2549 -3158 -3159 -3160 -3161 -3162 0
-197 209 -3158 -3159 -3160 -3161 -3162 0
209 -2297 -3158 -3159 -3160 -3161 -3162 0
209 -2549 -3158 -3159 -3160 -3161 -3162 0
-197 -2297 -3158 -3159 -3160 -3161 -3162 0
-209 -2297 -3158 -3159 -3160 -3161 -3162 0
-2297 -3158 -3159 -3160 -3161 -3162 0
-2297 -2549 -3158 -3159 -3160 -3161 -3162 0
-197 -2549 -3158 -3159 -3160 -3161 -3162 0
-209 -2549 -3158 -3159 -3160 -3161 -3162 0
-2549 -3158 -3159 -3160 -3161 -3162 0
3163 -205 0
205 -3163 0
-207 3164 0
-3163 3164 0
207 3163 -3164 0
3165 -3164 0
3164 -3165 0
-207 -3163 0
-206 0
-208 0
-209 0
3166 -217 0
217 -3166 0
-219 3167 0
-3166 3167 0
219 3166 -3167 0
3168 -3167 0
3167 -3168 0
-219 -3166 0
-218 0
-220 0
-221 0
-217 3169 0
-229 3169 0
-2305 3169 0
-2558 3169 0
217 229 2305 2558 -3169 0
3170 -3169 0
-3170 3169 0
-219 3171 0
-231 3171 0
-2307 3171 0
-2560 3171 0
-3170 3171 0
219 231 2307 2560 3170 -3171 0
3172 -3171 0
3171 -3172 0
-219 -3170 0
-231 -3170 0
-2307 -3170 0
-2560 -3170 0
-218 3173 0
-230 3173 0
2306 3173 0
2559 3173 0
218 230 -2306 -2559 -3173 0
-218 3174 0
230 3174 0
-2306 3174 0
2559 3174 0
218 -230 2306 -2559 -3174 0
-218 3175 0
230 3175 0
2306 3175 0
-2559 3175 0
218 -230 -2306 2559 -3175 0
218 3176 0
-230 3176 0
-2306 3176 0
2559 3176 0
-218 230 2306 -2559 -3176 0
218 3177 0
-230 3177 0
2306 3177 0
-2559 3177 0
-218 230 -2306 2559 -3177 0
218 -230 -3173 -3174 -3175 -3176 -3177 0
218 -2306 -3173 -3174 -3175 -3176 -3177 0
218 -2559 -3173 -3174 -3175 -3176 -3177 0
-218 230 -3173 -3174 -3175 -3176 -3177 0
230 -2306 -3173 -3174 -3175 -3176 -3177 0
230 -2559 -3173 -3174 -3175 -3176 -3177 0
-218 -2306 -3173 -3174 -3175 -3176 -3177 0
-230 -2306 -3173 -3174 -3175 -3176 -3177 0
-2306 -3173 -3174 -3175 -3176 -3177 0
-2306 -2559 -3173 -3174 -3175 -3176 -3177 0
-218 -2559 -3173 -3174 -3175 -3176 -3177 0
-230 -2559 -3173 -3174 -3175 -3176 -3177 0
-2559 -3173 -3174 -3175 -3176 -3177 0
-220 3178 0
-232 3178 0
2308 3178 0
2561 3178 0
220 232 -2308 -2561 -3178 0
-220 3179 0
232 3179 0
-2308 3179 0
2561 3179 0
220 -232 2308 -2561 -3179 0
-220 3180 0
232 3180 0
2308 3180 0
-2561 3180 0
220 -232 -2308 2561 -3180 0
220 3181 0
-232 3181 0
-2308 3181 0
2561 3181 0
-220 232 2308 -2561 -3181 0
220 3182 0
-232 3182 0
2308 3182 0
-2561 3182 0
-220 232 -2308 2561 -3182 0
220 -232 -3178 -3179 -3180 -3181 -3182 0
220 -2308 -3178 -3179 -3180 -3181 -3182 0
220 -2561 -3178 -3179 -3180 -3181 -3182 0
-220 232 -3178 -3179 -3180 -3181 -3182 0
232 -2308 -3178 -3179 -3180 -3181 -3182 0
232 -2561 -3178 -3179 -3180 -3181 -3182 0
-220 -2308 -3178 -3179 -3180 -3181 -3182 0
-232 -2308 -3178 -3179 -3180 -3181 -3182 0
-2308 -3178 -3179 -3180 -3181 -3182 0
-2308 -2561 -3178 -3179 -3180 -3181 -3182 0
-220 -2561 -3178 -3179 -3180 -3181 -3182 0
-232 -2561 -3178 -3179 -3180 -3181 -3182 0
-2561 -3178 -3179 -3180 -3181 -3182 0
-221 3183 0
-233 3183 0
2309 3183 0
2562 3183 0
221 233 -2309 -2562 -3183 0
-221 3184 0
233 3184 0
-2309 3184 0
2562 3184 0
221 -233 2309 -2562 -3184 0
-221 3185 0
233 3185 0
2309 3185 0
-2562 3185 0
221 -233 -2309 2562 -3185 0
221 3186 0
-233 3186 0
-2309 3186 0
2562 3186 0
-221 233 2309 -2562 -3186 0
221 3187 0
-233 3187 0
2309 3187 0
-2562 3187 0
-221 233 -2309 2562 -3187 0
221 -233 -3183 -3184 -3185 -3186 -3187 0
221 -2309 -3183 -3184 -3185 -3186 -3187 0
221 -2562 -3183 -3184 -3185 -3186 -3187 0
-221 233 -3183 -3184 -3185 -3186 -3187 0
233 -2309 -3183 -3184 -3185 -3186 -3187 0
233 -2562 -3183 -3184 -3185 -3186 -3187 0
-221 -2309 -3183 -3184 -3185 -3186 -3187 0
-233 -2309 -3183 -3184 -3185 -3186 -3187 0
-2309 -3183 -3184 -3185 -3186 -3187 0
-2309 -2562 -3183 -3184 -3185 -3186 -3187 0
-221 -2562 -3183 -3184 -3185 -3186 -3187 0
-233 -2562 -3183 -3184 -3185 -3186 -3187 0
-2562 -3183 -3184 -3185 -3186 -3187 0
-229 3188 0
-241 3188 0
229 241 -3188 0
3189 -3188 0
-3189 3188 0
-231 3190 0
-243 3190 0
-3189 3190 0
231 243 3189 -3190 0
3191 -3190 0
3190 -3191 0
-231 -3189 0
-243 -3189 0
230 -242 0
-230 242 0
244 -232 0
232 -244 0
245 -233 0
233 -245 0
-241 3192 0
-253 3192 0
-2317 3192 0
-2569 3192 0
241 253 2317 2569 -3192 0
3193 -3192 0
-3193 3192 0
-243 3194 0
-255 3194 0
-2319 3194 0
-2571 3194 0
-3193 3194 0
243 255 2319 2571 3193 -3194 0
3195 -3194 0
3194 -3195 0
-243 -3193 0
-255 -3193 0
-2319 -3193 0
-2571 -3193 0
-242 3196 0
-254 3196 0
2318 3196 0
2570 3196 0
242 254 -2318 -2570 -3196 0
-242 3197 0
254 3197 0
-2318 3197 0
2570 3197 0
242 -254 2318 -2570 -3197 0
-242 3198 0
254 3198 0
2318 3198 0
-2570 3198 0
242 -254 -2318 2570 -3198 0
242 3199 0
-254 3199 0
-2318 3199 0
2570 3199 0
-242 254 2318 -2570 -3199 0
242 3200 0
-254 3200 0
2318 3200 0
-2570 3200 0
-242 254 -2318 2570 -3200 0
242 -254 -3196 -3197 -3198 -3199 -3200 0
242 -2318 -3196 -3197 -3198 -3199 -3200 0
242 -2570 -3196 -3197 -3198 -3199 -3200 0
-242 254 -3196 -3197 -3198 -3199 -3200 0
254 -2318 -3196 -3197 -3198 -3199 -3200 0
254 -2570 -3196 -3197 -3198 -3199 -3200 0
-242 -2318 -3196 -3197 -3198 -3199 -3200 0
-254 -2318 -3196 -3197 -3198 -3199 -3200 0
-2318 -3196 -3197 -3198 -3199 -3200 0
-2318 -2570 -3196 -3197 -3198 -3199 -3200 0
-242 -2570 -3196 -3197 -3198 -3199 -3200 0
-254 -2570 -3196 -3197 -3198 -3199 -3200 0
-2570 -3196 -3197 -3198 -3199 -3200 0
-244 3201 0
-256 3201 0
2320 3201 0
2572 3201 0
244 256 -2320 -2572 -3201 0
-244 3202 0
256 3202 0
-2320 3202 0
2572 3202 0
244 -256 2320 -2572 -3202 0
-244 3203 0
256 3203 0
2320 3203 0
-2572 3203 0
244 -256 -2320 2572 -3203 0
244 3204 0
-256 3204 0
-2320 3204 0
2572 3204 0
-244 256 2320 -2572 -3204 0
244 3205 0
-256 3205 0
2320 3205 0
-2572 3205 0
-244 256 -2320 2572 -3205 0
244 -256 -3201 -3202 -3203 -3204 -3205 0
244 -2320 -3201 -3202 -3203 -3204 -3205 0
244 -2572 -3201 -3202 -3203 -3204 -3205 0
-244 256 -3201 -3202 -3203 -3204 -3205 0
256 -2320 -3201 -3202 -3203 -3204 -3205 0
256 -2572 -3201 -3202 -3203 -3204 -3205 0
-244 -2320 -3201 -3202 -3203 -3204 -3205 0
-256 -2320 -3201 -3202 -3203 -3204 -3205 0
-2320 -3201 -3202 -3203 -3204 -3205 0
-2320 -2572 -3201 -3202 -3203 -3204 -3205 0
-244 -2572 -3201 -3202 -3203 -3204 -3205 0
-256 -2572 -3201 -3202 -3203 -3204 -3205 0
-2572 -3201 -3202 -3203 -3204 -3205 0
-245 3206 0
-257 3206 0
2321 3206 0
2573 3206 0
245 257 -2321 -2573 -3206 0
-245 3207 0
257 3207 0
-2321 3207 0
2573 3207 0
245 -257 2321 -2573 -3207 0
-245 3208 0
257 3208 0
2321 3208 0
-2573 3208 0
245 -257 -2321 2573 -3208 0
245 3209 0
-257 3209 0
-2321 3209 0
2573 3209 0
-245 257 2321 -2573 -3209 0
245 3210 0
-257 3210 0
2321 3210 0
-2573 3210 0
-245 257 -2321 2573 -3210 0
245 -257 -3206 -3207 -3208 -3209 -3210 0
245 -2321 -3206 -3207 -3208 -3209 -3210 0
245 -2573 -3206 -3207 -3208 -3209 -3210 0
-245 257 -3206 -3207 -3208 -3209 -3210 0
257 -2321 -3206 -3207 -3208 -3209 -3210 0
257 -2573 -3206 -3207 -3208 -3209 -3210 0
-245 -2321 -3206 -3207 -3208 -3209 -3210 0
-257 -2321 -3206 -3207 -3208 -3209 -3210 0
-2321 -3206 -3207 -3208 -3209 -3210 0
-2321 -2573 -3206 -3207 -3208 -3209 -3210 0
-245 -2573 -3206 -3207 -3208 -3209 -3210 0
-257 -2573 -3206 -3207 -3208 -3209 -3210 0
-2573 -3206 -3207 -3208 -3209 -3210 0
-253 3211 0
-265 3211 0
253 265 -3211 0
3212 -3211 0
-3212 3211 0
-255 3213 0
-267 3213 0
-3212 3213 0
255 267 3212 -3213 0
3214 -3213 0
3213 -3214 0
-255 -3212 0
-267 -3212 0
254 -266 0
-254 266 0
268 -256 0
256 -268 0
269 -257 0
257 -269 0
-265 3215 0
-277 3215 0
-2329 3215 0
-2582 3215 0
265 277 2329 2582 -3215 0
3216 -3215 0
-3216 3215 0
-267 3217 0
-279 3217 0
-2331 3217 0
-2584 3217 0
-3216 3217 0
267 279 2331 2584 3216 -3217 0
3218 -3217 0
3217 -3218 0
-267 -3216 0
-279 -3216 0
-2331 -3216 0
-2584 -3216 0
-266 3219 0
-278 3219 0
2330 3219 0
2583 3219 0
266 278 -2330 -2583 -3219 0
-266 3220 0
278 3220 0
-2330 3220 0
2583 3220 0
266 -278 2330 -2583 -3220 0
-266 3221 0
278 3221 0
2330 3221 0
-2583 3221 0
266 -278 -2330 2583 -3221 0
266 3222 0
-278 3222 0
-2330 3222 0
2583 3222 0
-266 278 2330 -2583 -3222 0
266 3223 0
-278 3223 0
2330 3223 0
-2583 3223 0
-266 278 -2330 2583 -3223 0
266 -278 -3219 -3220 -3221 -3222 -3223 0
266 -2330 -3219 -3220 -3221 -3222 -3223 0
266 -2583 -3219 -3220 -3221 -3222 -3223 0
-266 278 -3219 -3220 -3221 -3222 -3223 0
278 -2330 -3219 -3220 -3221 -3222 -3223 0
278 -2583 -3219 -3220 -3221 -3222 -3223 0
-266 -2330 -3219 -3220 -3221 -3222 -3223 0
-278 -2330 -3219 -3220 -3221 -3222 -3223 0
-2330 -3219 -3220 -3221 -3222 -3223 0
-2330 -2583 -3219 -3220 -3221 -3222 -3223 0
-266 -2583 -3219 -3220 -3221 -3222 -3223 0
-278 -2583 -3219 -3220 -3221 -3222 -3223 0
-2583 -3219 -3220 -3221 -3222 -3223 0
-268 3224 0
-280 3224 0
2332 3224 0
2585 3224 0
268 280 -2332 -2585 -3224 0
-268 3225 0
280 3225 0
-2332 3225 0
2585 3225 0
268 -280 2332 -2585 -3225 0
-268 3226 0
280 3226 0
2332 3226 0
-2585 3226 0
268 -280 -2332 2585 -3226 0
268 3227 0
-280 3227 0
-2332 3227 0
2585 3227 0
-268 280 2332 -2585 -3227 0
268 3228 0
-280 3228 0
2332 3228 0
-2585 3228 0
-268 280 -2332 2585 -3228 0
268 -280 -3224 -3225 -3226 -3227 -3228 0
268 -2332 -3224 -3225 -3226 -3227 -3228 0
268 -2585 -3224 -3225 -3226 -3227 -3228 0
-268 280 -3224 -3225 -3226 -3227 -3228 0
280 -2332 -3224 -3225 -3226 -3227 -3228 0
280 -2585 -3224 -3225 -3226 -3227 -3228 0
-268 -2332 -3224 -3225 -3226 -3227 -3228 0
-280 -2332 -3224 -3225 -3226 -3227 -3228 0
-2332 -3224 -3225 -3226 -3227 -3228 0
-2332 -2585 -3224 -3225 -3226 -3227 -3228 0
-268 -2585 -3224 -3225 -3226 -3227 -3228 0
-280 -2585 -3224 -3225 -3226 -3227 -3228 0
-2585 -3224 -3225 -3226 -3227 -3228 0
-269 3229 0
-281 3229 0
2333 3229 0
2586 3229 0
269 281 -2333 -2586 -3229 0
-269 3230 0
281 3230 0
-2333 3230 0
2586 3230 0
269 -281 2333 -2586 -3230 0
-269 3231 0
281 3231 0
2333 3231 0
-2586 3231 0
269 -281 -2333 2586 -3231 0
269 3232 0
-281 3232 0
-2333 3232 0
2586 3232 0
-269 281 2333 -2586 -3232 0
269 3233 0
-281 3233 0
2333 3233 0
-2586 3233 0
-269 281 -2333 2586 -3233 0
269 -281 -3229 -3230 -3231 -3232 -3233 0
269 -2333 -3229 -3230 -3231 -3232 -3233 0
269 -2586 -3229 -3230 -3231 -3232 -3233 0
-269 281 -3229 -3230 -3231 -3232 -3233 0
281 -2333 -3229 -3230 -3231 -3232 -3233 0
281 -2586 -3229 -3230 -3231 -3232 -3233 0
-269 -2333 -3229 -3230 -3231 -3232 -3233 0
-281 -2333 -3229 -3230 -3231 -3232 -3233 0
-2333 -3229 -3230 -3231 -3232 -3233 0
-2333 -2586 -3229 -3230 -3231 -3232 -3233 0
-269 -2586 -3229 -3230 -3231 -3232 -3233 0
-281 -2586 -3229 -3230 -3231 -3232 -3233 0
-2586 -3229 -3230 -3231 -3232 -3233 0
3234 -277 0
277 -3234 0
-279 3235 0
-3234 3235 0
279 3234 -3235 0
3236 -3235 0
3235 -3236 0
-279 -3234 0
-278 0
-280 0
-281 0
3237 -289 0
289 -3237 0
-291 3238 0
-3237 3238 0
291 3237 -3238 0
3239 -3238 0
3238 -3239 0
-291 -3237 0
-290 0
-292 0
-293 0
-289 3240 0
-301 3240 0
-2341 3240 0
-2594 3240 0
289 301 2341 2594 -3240 0
3241 -3240 0
-3241 3240 0
-291 3242 0
-303 3242 0
-2343 3242 0
-2596 3242 0
-3241 3242 0
291 303 2343 2596 3241 -3242 0
3243 -3242 0
3242 -3243 0
-291 -3241 0
-303 -3241 0
-2343 -3241 0
-2596 -3241 0
-290 3244 0
-302 3244 0
2342 3244 0
2595 3244 0
290 302 -2342 -2595 -3244 0
-290 3245 0
302 3245 0
-2342 3245 0
2595 3245 0
290 -302 2342 -2595 -3245 0
-290 3246 0
302 3246 0
2342 3246 0
-2595 3246 0
290 -302 -2342 2595 -3246 0
290 3247 0
-302 3247 0
-2342 3247 0
2595 3247 0
-290 302 2342 -2595 -3247 0
290 3248 0
-302 3248 0
2342 3248 0
-2595 3248 0
-290 302 -2342 2595 -3248 0
290 -302 -3244 -3245 -3246 -3247 -3248 0
290 -2342 -3244 -3245 -3246 -3247 -3248 0
290 -2595 -3244 -3245 -3246 -3247 -3248 0
-290 302 -3244 -3245 -3246 -3247 -3248 0
302 -2342 -3244 -3245 -3246 -3247 -3248 0
302 -2595 -3244 -3245 -3246 -3247 -3248 0
-290 -2342 -3244 -3245 -3246 -3247 -3248 0
-302 -2342 -3244 -3245 -3246 -3247 -3248 0
-2342 -3244 -3245 -3246 -3247 -3248 0
-2342 -2595 -3244 -3245 -3246 -3247 -3248 0
-290 -2595 -3244 -3245 -3246 -3247 -3248 0
-302 -2595 -3244 -3245 -3246 -3247 -3248 0
-2595 -3244 -3245 -3246 -3247 -3248 0
-292 3249 0
-304 3249 0
2344 3249 0
2597 3249 0
292 304 -2344 -2597 -3249 0
-292 3250 0
304 3250 0
-2344 3250 0
2597 3250 0
292 -304 2344 -2597 -3250 0
-292 3251 0
304 3251 0
2344 3251 0
-2597 3251 0
292 -304 -2344 2597 -3251 0
292 3252 0
-304 3252 0
-2344 3252 0
2597 3252 0
-292 304 2344 -2597 -3252 0
292 3253 0
-304 3253 0
2344 3253 0
-2597 3253 0
-292 304 -2344 2597 -3253 0
292 -304 -3249 -3250 -3251 -3252 -3253 0
292 -2344 -3249 -3250 -3251 -3252 -3253 0
292 -2597 -3249 -3250 -3251 -3252 -3253 0
-292 304 -3249 -3250 -3251 -3252 -3253 0
304 -2344 -3249 -3250 -3251 -3252 -3253 0
304 -2597 -3249 -3250 -3251 -3252 -3253 0
-292 -2344 -3249 -3250 -3251 -3252 -3253 0
-304 -2344 -3249 -3250 -3251 -3252 -3253 0
-2344 -3249 -3250 -3251 -3252 -3253 0
-2344 -2597 -3249 -3250 -3251 -3252 -3253 0
-292 -2597 -3249 -3250 -3251 -3252 -3253 0
-304 -2597 -3249 -3250 -3251 -3252 -3253 0
-2597 -3249 -3250 -3251 -3252 -3253 0
-293 3254 0
-305 3254 0
2345 3254 0
2598 3254 0
293 305 -2345 -2598 -3254 0
-293 3255 0
305 3255 0
-2345 3255 0
2598 3255 0
293 -305 2345 -2598 -3255 0
-293 3256 0
305 3256 0
2345 3256 0
-2598 3256 0
293 -305 -2345 2598 -3256 0
293 3257 0
-305 3257 0
-2345 3257 0
2598 3257 0
-293 305 2345 -2598 -3257 0
293 3258 0
-305 3258 0
2345 3258 0
-2598 3258 0
-293 305 -2345 2598 -3258 0
293 -305 -3254 -3255 -3256 -3257 -3258 0
293 -2345 -3254 -3255 -3256 -3257 -3258 0
293 -2598 -3254 -3255 -3256 -3257 -3258 0
-293 305 -3254 -3255 -3256 -3257 -3258 0
305 -2345 -3254 -3255 -3256 -3257 -3258 0
305 -2598 -3254 -3255 -3256 -3257 -3258 0
-293 -2345 -3254 -3255 -3256 -3257 -3258 0
-305 -2345 -3254 -3255 -3256 -3257 -3258 0
-2345 -3254 -3255 -3256 -3257 -3258 0
-2345 -2598 -3254 -3255 -3256 -3257 -3258 0
-293 -2598 -3254 -3255 -3256 -3257 -3258 0
-305 -2598 -3254 -3255 -3256 -3257 -3258 0
-2598 -3254 -3255 -3256 -3257 -3258 0
-301 3259 0
-313 3259 0
301 313 -3259 0
3260 -3259 0
-3260 3259 0
-303 3261 0
-315 3261 0
-3260 3261 0
303 315 3260 -3261 0
3262 -3261 0
3261 -3262 0
-303 -3260 0
-315 -3260 0
302 -314 0
-302 314 0
316 -304 0
304 -316 0
317 -305 0
305 -317 0
-313 3263 0
-325 3263 0
-2353 3263 0
-2605 3263 0
313 325 2353 2605 -3263 0
3264 -3263 0
-3264 3263 0
-315 3265 0
-327 3265 0
-2355 3265 0
-2607 3265 0
-3264 3265 0
315 327 2355 2607 3264 -3265 0
3266 -3265 0
3265 -3266 0
-315 -3264 0
-327 -3264 0
-2355 -3264 0
-2607 -3264 0
-314 3267 0
-326 3267 0
2354 3267 0
2606 3267 0
314 326 -2354 -2606 -3267 0
-314 3268 0
326 3268 0
-2354 3268 0
2606 3268 0
314 -326 2354 -2606 -3268 0
-314 3269 0
326 3269 0
2354 3269 0
-2606 3269 0
314 -326 -2354 2606 -3269 0
314 3270 0
-326 3270 0
-2354 3270 0
2606 3270 0
-314 326 2354 -2606 -3270 0
314 3271 0
-326 3271 0
2354 3271 0
-2606 3271 0
-314 326 -2354 2606 -3271 0
314 -326 -3267 -3268 -3269 -3270 -3271 0
314 -2354 -3267 -3268 -3269 -3270 -3271 0
314 -2606 -3267 -3268 -3269 -3270 -3271 0
-314 326 -3267 -3268 -3269 -3270 -3271 0
326 -2354 -3267 -3268 -3269 -3270 -3271 0
326 -2606 -3267 -3268 -3269 -3270 -3271 0
-314 -2354 -3267 -3268 -3269 -3270 -3271 0
-326 -2354 -3267 -3268 -3269 -3270 -3271 0
-2354 -3267 -3268 -3269 -3270 -3271 0
-2354 -2606 -3267 -3268 -3269 -3270 -3271 0
-314 -2606 -3267 -3268 -3269 -3270 -3271 0
-326 -2606 -3267 -3268 -3269 -3270 -3271 0
-2606 -3267 -3268 -3269 -3270 -3271 0
-316 3272 0
-328 3272 0
2356 3272 0
2608 3272 0
316 328 -2356 -2608 -3272 0
-316 3273 0
328 3273 0
-2356 3273 0
2608 3273 0
316 -328 2356 -2608 -3273 0
-316 3274 0
328 3274 0
2356 3274 0
-2608 3274 0
316 -328 -2356 2608 -3274 0
316 3275 0
-328 3275 0
-2356 3275 0
2608 3275 0
-316 328 2356 -2608 -3275 0
316 3276 0
-328 3276 0
2356 3276 0
-2608 3276 0
-316 328 -2356 2608 -3276 0
316 -328 -3272 -3273 -3274 -3275 -3276 0
316 -2356 -3272 -3273 -3274 -3275 -3276 0
316 -2608 -3272 -3273 -3274 -3275 -3276 0
-316 328 -3272 -3273 -3274 -3275 -3276 0
328 -2356 -3272 -3273 -3274 -3275 -3276 0
328 -2608 -3272 -3273 -3274 -3275 -3276 0
-316 -2356 -3272 -3273 -3274 -3275 -3276 0
-328 -2356 -3272 -3273 -3274 -3275 -3276 0
-2356 -3272 -3273 -3274 -3275 -3276 0
-2356 -2608 -3272 -3273 -3274 -3275 -3276 0
-316 -2608 -3272 -3273 -3274 -3275 -3276 0
-328 -2608 -3272 -3273 -3274 -3275 -3276 0
-2608 -3272 -3273 -3274 -3275 -3276 0
-317 3277 0
-329 3277 0
2357 3277 0
2609 3277 0
317 329 -2357 -2609 -3277 0
-317 3278 0
329 3278 0
-2357 3278 0
2609 3278 0
317 -329 2357 -2609 -3278 0
-317 3279 0
329 3279 0
2357 3279 0
-2609 3279 0
317 -329 -2357 2609 -3279 0
317 3280 0
-329 3280 0
-2357 3280 0
2609 3280 0
-317 329 2357 -2609 -3280 0
317 3281 0
-329 3281 0
2357 3281 0
-2609 3281 0
-317 329 -2357 2609 -3281 0
317 -329 -3277 -3278 -3279 -3280 -3281 0
317 -2357 -3277 -3278 -3279 -3280 -3281 0
317 -2609 -3277 -3278 -3279 -3280 -3281 0
-317 329 -3277 -3278 -3279 -3280 -3281 0
329 -2357 -3277 -3278 -3279 -3280 -3281 0
329 -2609 -3277 -3278 -3279 -3280 -3281 0
-317 -2357 -3277 -3278 -3279 -3280 -3281 0
-329 -2357 -3277 -3278 -3279 -3280 -3281 0
-2357 -3277 -3278 -3279 -3280 -3281 0
-2357 -2609 -3277 -3278 -3279 -3280 -3281 0
-317 -2609 -3277 -3278 -3279 -3280 -3281 0
-329 -2609 -3277 -3278 -3279 -3280 -3281 0
-2609 -3277 -3278 -3279 -3280 -3281 0
-325 3282 0
-337 3282 0
325 337 -3282 0
3283 -3282 0
-3283 3282 0
-327 3284 0
-339 3284 0
-3283 3284 0
327 339 3283 -3284 0
3285 -3284 0
3284 -3285 0
-327 -3283 0
-339 -3283 0
326 -338 0
-326 338 0
340 -328 0
328 -340 0
341 -329 0
329 -341 0
-337 3286 0
-349 3286 0
-2365 3286 0
-2617 3286 0
337 349 2365 2617 -3286 0
3287 -3286 0
-3287 3286 0
-339 3288 0
-351 3288 0
-2367 3288 0
-2619 3288 0
-3287 3288 0
339 351 2367 2619 3287 -3288 0
3289 -3288 0
3288 -3289 0
-339 -3287 0
-351 -3287 0
-2367 -3287 0
-2619 -3287 0
-338 3290 0
-350 3290 0
2366 3290 0
2618 3290 0
338 350 -2366 -2618 -3290 0
-338 3291 0
350 3291 0
-2366 3291 0
2618 3291 0
338 -350 2366 -2618 -3291 0
-338 3292 0
350 3292 0
2366 3292 0
-2618 3292 0
338 -350 -2366 2618 -3292 0
338 3293 0
-350 3293 0
-2366 3293 0
2618 3293 0
-338 350 2366 -2618 -3293 0
338 3294 0
-350 3294 0
2366 3294 0
-2618 3294 0
-338 350 -2366 2618 -3294 0
338 -350 -3290 -3291 -3292 -3293 -3294 0
338 -2366 -3290 -3291 -3292 -3293 -3294 0
338 -2618 -3290 -3291 -3292 -3293 -3294 0
-338 350 -3290 -3291 -3292 -3293 -3294 0
350 -2366 -3290 -3291 -3292 -3293 -3294 0
350 -2618 -3290 -3291 -3292 -3293 -3294 0
-338 -2366 -3290 -3291 -3292 -3293 -3294 0
-350 -2366 -3290 -3291 -3292 -3293 -3294 0
-2366 -3290 -3291 -3292 -3293 -3294 0
-2366 -2618 -3290 -3291 -3292 -3293 -3294 0
-338 -2618 -3290 -3291 -3292 -3293 -3294 0
-350 -2618 -3290 -3291 -3292 -3293 -3294 0
-2618 -3290 -3291 -3292 -3293 -3294 0
-340 3295 0
-352 3295 0
2368 3295 0
2620 3295 0
340 352 -2368 -2620 -3295 0
-340 3296 0
352 3296 0
-2368 3296 0
2620 3296 0
340 -352 2368 -2620 -3296 0
-340 3297 0
352 3297 0
2368 3297 0
-2620 3297 0
340 -352 -2368 2620 -3297 0
340 3298 0
-352 3298 0
-2368 3298 0
2620 3298 0
-340 352 2368 -2620 -3298 0
340 3299 0
-352 3299 0
2368 3299 0
-2620 3299 0
-340 352 -2368 2620 -3299 0
340 -352 -3295 -3296 -3297 -3298 -3299 0
340 -2368 -3295 -3296 -3297 -3298 -3299 0
340 -2620 -3295 -3296 -3297 -3298 -3299 0
-340 352 -3295 -3296 -3297 -3298 -3299 0
352 -2368 -3295 -3296 -3297 -3298 -3299 0
352 -2620 -3295 -3296 -3297 -3298 -3299 0
-340 -2368 -3295 -3296 -3297 -3298 -3299 0
-352 -2368 -3295 -3296 -3297 -3298 -3299 0
-2368 -3295 -3296 -3297 -3298 -3299 0
-2368 -2620 -3295 -3296 -3297 -3298 -3299 0
-340 -2620 -3295 -3296 -3297 -3298 -3299 0
-352 -2620 -3295 -3296 -3297 -3298 -3299 0
-2620 -3295 -3296 -3297 -3298 -3299 0
-341 3300 0
-353 3300 0
2369 3300 0
2621 3300 0
341 353 -2369 -2621 -3300 0
-341 3301 0
353 3301 0
-2369 3301 0
2621 3301 0
341 -353 2369 -2621 -3301 0
-341 3302 0
353 3302 0
2369 3302 0
-2621 3302 0
341 -353 -2369 2621 -3302 0
341 3303 0
-353 3303 0
-2369 3303 0
2621 3303 0
-341 353 2369 -2621 -3303 0
341 3304 0
-353 3304 0
2369 3304 0
-2621 3304 0
-341 353 -2369 2621 -3304 0
341 -353 -3300 -3301 -3302 -3303 -3304 0
341 -2369 -3300 -3301 -3302 -3303 -3304 0
341 -2621 -3300 -3301 -3302 -3303 -3304 0
-341 353 -3300 -3301 -3302 -3303 -3304 0
353 -2369 -3300 -3301 -3302 -3303 -3304 0
353 -2621 -3300 -3301 -3302 -3303 -3304 0
-341 -2369 -3300 -3301 -3302 -3303 -3304 0
-353 -2369 -3300 -3301 -3302 -3303 -3304 0
-2369 -3300 -3301 -3302 -3303 -3304 0
-2369 -2621 -3300 -3301 -3302 -3303 -3304 0
-341 -2621 -3300 -3301 -3302 -3303 -3304 0
-353 -2621 -3300 -3301 -3302 -3303 -3304 0
-2621 -3300 -3301 -3302 -3303 -3304 0
3305 -349 0
349 -3305 0
-351 3306 0
-3305 3306 0
351 3305 -3306 0
3307 -3306 0
3306 -3307 0
-351 -3305 0
-350 0
-352 0
-353 0
3308 -361 0
361 -3308 0
-363 3309 0
-3308 3309 0
363 3308 -3309 0
3310 -3309 0
3309 -3310 0
-363 -3308 0
-362 0
-364 0
-365 0
-361 3311 0
-373 3311 0
-2377 3311 0
-2630 3311 0
361 373 2377 2630 -3311 0
3312 -3311 0
-3312 3311 0
-363 3313 0
-375 3313 0
-2379 3313 0
-2632 3313 0
-3312 3313 0
363 375 2379 2632 3312 -3313 0
3314 -3313 0
3313 -3314 0
-363 -3312 0
-375 -3312 0
-2379 -3312 0
-2632 -3312 0
-362 3315 0
-374 3315 0
2378 3315 0
2631 3315 0
362 374 -2378 -2631 -3315 0
-362 3316 0
374 3316 0
-2378 3316 0
2631 3316 0
362 -374 2378 -2631 -3316 0
-362 3317 0
374 3317 0
2378 3317 0
-2631 3317 0
362 -374 -2378 2631 -3317 0
362 3318 0
-374 3318 0
-2378 3318 0
2631 3318 0
-362 374 2378 -2631 -3318 0
362 3319 0
-374 3319 0
2378 3319 0
-2631 3319 0
-362 374 -2378 2631 -3319 0
362 -374 -3315 -3316 -3317 -3318 -3319 0
362 -2378 -3315 -3316 -3317 -3318 -3319 0
362 -2631 -3315 -3316 -3317 -3318 -3319 0
-362 374 -3315 -3316 -3317 -3318 -3319 0
374 -2378 -3315 -3316 -3317 -3318 -3319 0
374 -2631 -3315 -3316 -3317 -3318 -3319 0
-362 -2378 -3315 -3316 -3317 -3318 -3319 0
-374 -2378 -3315 -3316 -3317 -3318 -3319 0
-2378 -3315 -3316 -3317 -3318 -3319 0
-2378 -2631 -3315 -3316 -3317 -3318 -3319 0
-362 -2631 -3315 -3316 -3317 -3318 -3319 0
-374 -2631 -3315 -3316 -3317 -3318 -3319 0
-2631 -3315 -3316 -3317 -3318 -3319 0
-364 3320 0
-376 3320 0
2380 3320 0
2633 3320 0
364 376 -2380 -2633 -3320 0
-364 3321 0
376 3321 0
-2380 3321 0
2633 3321 0
364 -376 2380 -2633 -3321 0
-364 3322 0
376 3322 0
2380 3322 0
-2633 3322 0
364 -376 -2380 2633 -3322 0
364 3323 0
-376 3323 0
-2380 3323 0
2633 3323 0
-364 376 2380 -2633 -3323 0
364 3324 0
-376 3324 0
2380 3324 0
-2633 3324 0
-364 376 -2380 2633 -3324 0
364 -376 -3320 -3321 -3322 -3323 -3324 0
364 -2380 -3320 -3321 -3322 -3323 -3324 0
364 -2633 -3320 -3321 -3322 -3323 -3324 0
-364 376 -3320 -3321 -3322 -3323 -3324 0
376 -2380 -3320 -3321 -3322 -3323 -3324 0
376 -2633 -3320 -3321 -3322 -3323 -3324 0
-364 -2380 -3320 -3321 -3322 -3323 -3324 0
-376 -2380 -3320 -3321 -3322 -3323 -3324 0
-2380 -3320 -3321 -3322 -3323 -3324 0
-2380 -2633 -3320 -3321 -3322 -3323 -3324 0
-364 -2633 -3320 -3321 -3322 -3323 -3324 0
-376 -2633 -3320 -3321 -3322 -3323 -3324 0
-2633 -3320 -3321 -3322 -3323 -3324 0
-365 3325 0
-377 3325 0
2381 3325 0
2634 3325 0
365 377 -2381 -2634 -3325 0
-365 3326 0
377 3326 0
-2381 3326 0
2634 3326 0
365 -377 2381 -2634 -3326 0
-365 3327 0
377 3327 0
2381 3327 0
-2634 3327 0
365 -377 -2381 2634 -3327 0
365 3328 0
-377 3328 0
-2381 3328 0
2634 3328 0
-365 377 2381 -2634 -3328 0
365 3329 0
-377 3329 0
2381 3329 0
-2634 3329 0
-365 377 -2381 2634 -3329 0
365 -377 -3325 -3326 -3327 -3328 -3329 0
365 -2381 -3325 -3326 -3327 -3328 -3329 0
365 -2634 -3325 -3326 -3327 -3328 -3329 0
-365 377 -3325 -3326 -3327 -3328 -3329 0
377 -2381 -3325 -3326 -3327 -3328 -3329 0
377 -2634 -3325 -3326 -3327 -3328 -3329 0
-365 -2381 -3325 -3326 -3327 -3328 -3329 0
-377 -2381 -3325 -3326 -3327 -3328 -3329 0
-2381 -3325 -3326 -3327 -3328 -3329 0
-2381 -2634 -3325 -3326 -3327 -3328 -3329 0
-365 -2634 -3325 -3326 -3327 -3328 -3329 0
-377 -2634 -3325 -3326 -3327 -3328 -3329 0
-2634 -3325 -3326 -3327 -3328 -3329 0
-373 3330 0
-385 3330 0
373 385 -3330 0
3331 -3330 0
-3331 3330 0
-375 3332 0
-387 3332 0
-3331 3332 0
375 387 3331 -3332 0
3333 -3332 0
3332 -3333 0
-375 -3331 0
-387 -3331 0
374 -386 0
-374 386 0
388 -376 0
376 -388 0
389 -377 0
377 -389 0
-385 3334 0
-397 3334 0
-2389 3334 0
-2641 3334 0
385 397 2389 2641 -3334 0
3335 -3334 0
-3335 3334 0
-387 3336 0
-399 3336 0
-2391 3336 0
-2643 3336 0
-3335 3336 0
387 399 2391 2643 3335 -3336 0
3337 -3336 0
3336 -3337 0
-387 -3335 0
-399 -3335 0
-2391 -3335 0
-2643 -3335 0
-386 3338 0
-398 3338 0
2390 3338 0
2642 3338 0
386 398 -2390 -2642 -3338 0
-386 3339 0
398 3339 0
-2390 3339 0
2642 3339 0
386 -398 2390 -2642 -3339 0
-386 3340 0
398 3340 0
2390 3340 0
-2642 3340 0
386 -398 -2390 2642 -3340 0
386 3341 0
-398 3341 0
-2390 3341 0
2642 3341 0
-386 398 2390 -2642 -3341 0
386 3342 0
-398 3342 0
2390 3342 0
-2642 3342 0
-386 398 -2390 2642 -3342 0
386 -398 -3338 -3339 -3340 -3341 -3342 0
386 -2390 -3338 -3339 -3340 -3341 -3342 0
386 -2642 -3338 -3339 -3340 -3341 -3342 0
-386 398 -3338 -3339 -3340 -3341 -3342 0
398 -2390 -3338 -3339 -3340 -3341 -3342 0
398 -2642 -3338 -3339 -3340 -3341 -3342 0
-386 -2390 -3338 -3339 -3340 -3341 -3342 0
-398 -2390 -3338 -3339 -3340 -3341 -3342 0
-2390 -3338 -3339 -3340 -3341 -3342 0
-2390 -2642 -3338 -3339 -3340 -3341 -3342 0
-386 -2642 -3338 -3339 -3340 -3341 -3342 0
-398 -2642 -3338 -3339 -3340 -3341 -3342 0
-2642 -3338 -3339 -3340 -3341 -3342 0
-388 3343 0
-400 3343 0
2392 3343 0
2644 3343 0
388 400 -2392 -2644 -3343 0
-388 3344 0
400 3344 0
-2392 3344 0
2644 3344 0
388 -400 2392 -2644 -3344 0
-388 3345 0
400 3345 0
2392 3345 0
-2644 3345 0
388 -400 -2392 2644 -3345 0
388 3346 0
-400 3346 0
-2392 3346 0
2644 3346 0
-388 400 2392 -2644 -3346 0
388 3347 0
-400 3347 0
2392 3347 0
-2644 3347 0
-388 400 -2392 2644 -3347 0
388 -400 -3343 -3344 -3345 -3346 -3347 0
388 -2392 -3343 -3344 -3345 -3346 -3347 0
388 -2644 -3343 -3344 -3345 -3346 -3347 0
-388 400 -3343 -3344 -3345 -3346 -3347 0
400 -2392 -3343 -3344 -3345 -3346 -3347 0
400 -2644 -3343 -3344 -3345 -3346 -3347 0
-388 -2392 -3343 -3344 -3345 -3346 -3347 0
-400 -2392 -3343 -3344 -3345 -3346 -3347 0
-2392 -3343 -3344 -3345 -3346 -3347 0
-2392 -2644 -3343 -3344 -3345 -3346 -3347 0
-388 -2644 -3343 -3344 -3345 -3346 -3347 0
-400 -2644 -3343 -3344 -3345 -3346 -3347 0
-2644 -3343 -3344 -3345 -3346 -3347 0
-389 3348 0
-401 3348 0
2393 3348 0
2645 3348 0
389 401 -2393 -2645 -3348 0
-389 3349 0
401 3349 0
-2393 3349 0
2645 3349 0
389 -401 2393 -2645 -3349 0
-389 3350 0
401 3350 0
2393 3350 0
-2645 3350 0
389 -401 -2393 2645 -3350 0
389 3351 0
-401 3351 0
-2393 3351 0
2645 3351 0
-389 401 2393 -2645 -3351 0
389 3352 0
-401 3352 0
2393 3352 0
-2645 3352 0
-389 401 -2393 2645 -3352 0
389 -401 -3348 -3349 -3350 -3351 -3352 0
389 -2393 -3348 -3349 -3350 -3351 -3352 0
389 -2645 -3348 -3349 -3350 -3351 -3352 0
-389 401 -3348 -3349 -3350 -3351 -3352 0
401 -2393 -3348 -3349 -3350 -3351 -3352 0
401 -2645 -3348 -3349 -3350 -3351 -3352 0
-389 -2393 -3348 -3349 -3350 -3351 -3352 0
-401 -2393 -3348 -3349 -3350 -3351 -3352 0
-2393 -3348 -3349 -3350 -3351 -3352 0
-2393 -2645 -3348 -3349 -3350 -3351 -3352 0
-389 -2645 -3348 -3349 -3350 -3351 -3352 0
-401 -2645 -3348 -3349 -3350 -3351 -3352 0
-2645 -3348 -3349 -3350 -3351 -3352 0
-397 3353 0
-409 3353 0
397 409 -3353 0
3354 -3353 0
-3354 3353 0
-399 3355 0
-411 3355 0
-3354 3355 0
399 411 3354 -3355 0
3356 -3355 0
3355 -3356 0
-399 -3354 0
-411 -3354 0
398 -410 0
-398 410 0
412 -400 0
400 -412 0
413 -401 0
401 -413 0
-409 3357 0
-421 3357 0
-2401 3357 0
-2653 3357 0
409 421 2401 2653 -3357 0
3358 -3357 0
-3358 3357 0
-411 3359 0
-423 3359 0
-2403 3359 0
-2655 3359 0
-3358 3359 0
411 423 2403 2655 3358 -3359 0
3360 -3359 0
3359 -3360 0
-411 -3358 0
-423 -3358 0
-2403 -3358 0
-2655 -3358 0
-410 3361 0
-422 3361 0
2402 3361 0
2654 3361 0
410 422 -2402 -2654 -3361 0
-410 3362 0
422 3362 0
-2402 3362 0
2654 3362 0
410 -422 2402 -2654 -3362 0
-410 3363 0
422 3363 0
2402 3363 0
-2654 3363 0
410 -422 -2402 2654 -3363 0
410 3364 0
-422 3364 0
-2402 3364 0
2654 3364 0
-410 422 2402 -2654 -3364 0
410 3365 0
-422 3365 0
2402 3365 0
-2654 3365 0
-410 422 -2402 2654 -3365 0
410 -422 -3361 -3362 -3363 -3364 -3365 0
410 -2402 -3361 -3362 -3363 -3364 -3365 0
410 -2654 -3361 -3362 -3363 -3364 -3365 0
-410 422 -3361 -3362 -3363 -3364 -3365 0
422 -2402 -3361 -3362 -3363 -3364 -3365 0
422 -2654 -3361 -3362 -3363 -3364 -3365 0
-410 -2402 -3361 -3362 -3363 -3364 -3365 0
-422 -2402 -3361 -3362 -3363 -3364 -3365 0
-2402 -3361 -3362 -3363 -3364 -3365 0
-2402 -2654 -3361 -3362 -3363 -3364 -3365 0
-410 -2654 -3361 -3362 -3363 -3364 -3365 0
-422 -2654 -3361 -3362 -3363 -3364 -3365 0
-2654 -3361 -3362 -3363 -3364 -3365 0
-412 3366 0
-424 3366 0
2404 3366 0
2656 3366 0
412 424 -2404 -2656 -3366 0
-412 3367 0
424 3367 0
-2404 3367 0
2656 3367 0
412 -424 2404 -2656 -3367 0
-412 3368 0
424 3368 0
2404 3368 0
-2656 3368 0
412 -424 -2404 2656 -3368 0
412 3369 0
-424 3369 0
-2404 3369 0
2656 3369 0
-412 424 2404 -2656 -3369 0
412 3370 0
-424 3370 0
2404 3370 0
-2656 3370 0
-412 424 -2404 2656 -3370 0
412 -424 -3366 -3367 -3368 -3369 -3370 0
412 -2404 -3366 -3367 -3368 -3369 -3370 0
412 -2656 -3366 -3367 -3368 -3369 -3370 0
-412 424 -3366 -3367 -3368 -3369 -3370 0
424 -2404 -3366 -3367 -3368 -3369 -3370 0
424 -2656 -3366 -3367 -3368 -3369 -3370 0
-412 -2404 -3366 -3367 -3368 -3369 -3370 0
-424 -2404 -3366 -3367 -3368 -3369 -3370 0
-2404 -3366 -3367 -3368 -3369 -3370 0
-2404 -2656 -3366 -3367 -3368 -3369 -3370 0
-412 -2656 -3366 -3367 -3368 -3369 -3370 0
-424 -2656 -3366 -3367 -3368 -3369 -3370 0
-2656 -3366 -3367 -3368 -3369 -3370 0
-413 3371 0
-425 3371 0
2405 3371 0
2657 3371 0
413 425 -2405 -2657 -3371 0
-413 3372 0
425 3372 0
-2405 3372 0
2657 3372 0
413 -425 2405 -2657 -3372 0
-413 3373 0
425 3373 0
2405 3373 0
-2657 3373 0
413 -425 -2405 2657 -3373 0
413 3374 0
-425 3374 0
-2405 3374 0
2657 3374 0
-413 425 2405 -2657 -3374 0
413 3375 0
-425 3375 0
2405 3375 0
-2657 3375 0
-413 425 -2405 2657 -3375 0
413 -425 -3371 -3372 -3373 -3374 -3375 0
413 -2405 -3371 -3372 -3373 -3374 -3375 0
413 -2657 -3371 -3372 -3373 -3374 -3375 0
-413 425 -3371 -3372 -3373 -3374 -3375 0
425 -2405 -3371 -3372 -3373 -3374 -3375 0
425 -2657 -3371 -3372 -3373 -3374 -3375 0
-413 -2405 -3371 -3372 -3373 -3374 -3375 0
-425 -2405 -3371 -3372 -3373 -3374 -3375 0
-2405 -3371 -3372 -3373 -3374 -3375 0
-2405 -2657 -3371 -3372 -3373 -3374 -3375 0
-413 -2657 -3371 -3372 -3373 -3374 -3375 0
-425 -2657 -3371 -3372 -3373 -3374 -3375 0
-2657 -3371 -3372 -3373 -3374 -3375 0
3376 -421 0
421 -3376 0
-423 3377 0
-3376 3377 0
423 3376 -3377 0
3378 -3377 0
3377 -3378 0
-423 -3376 0
-422 0
-424 0
-425 0
3379 -433 0
433 -3379 0
-435 3380 0
-3379 3380 0
435 3379 -3380 0
3381 -3380 0
3380 -3381 0
-435 -3379 0
-434 0
-436 0
-437 0
-433 3382 0
-445 3382 0
-2413 3382 0
-2666 3382 0
433 445 2413 2666 -3382 0
3383 -3382 0
-3383 3382 0
-435 3384 0
-447 3384 0
-2415 3384 0
-2668 3384 0
-3383 3384 0
435 447 2415 2668 3383 -3384 0
3385 -3384 0
3384 -3385 0
-435 -3383 0
-447 -3383 0
-2415 -3383 0
-2668 -3383 0
-434 3386 0
-446 3386 0
2414 3386 0
2667 3386 0
434 446 -2414 -2667 -3386 0
-434 3387 0
446 3387 0
-2414 3387 0
2667 3387 0
434 -446 2414 -2667 -3387 0
-434 3388 0
446 3388 0
2414 3388 0
-2667 3388 0
434 -446 -2414 2667 -3388 0
434 3389 0
-446 3389 0
-2414 3389 0
2667 3389 0
-434 446 2414 -2667 -3389 0
434 3390 0
-446 3390 0
2414 3390 0
-2667 3390 0
-434 446 -2414 2667 -3390 0
434 -446 -3386 -3387 -3388 -3389 -3390 0
434 -2414 -3386 -3387 -3388 -3389 -3390 0
434 -2667 -3386 -3387 -3388 -3389 -3390 0
-434 446 -3386 -3387 -3388 -3389 -3390 0
446 -2414 -3386 -3387 -3388 -3389 -3390 0
446 -2667 -3386 -3387 -3388 -3389 -3390 0
-434 -2414 -3386 -3387 -3388 -3389 -3390 0
-446 -2414 -3386 -3387 -3388 -3389 -3390 0
-2414 -3386 -3387 -3388 -3389 -3390 0
-2414 -2667 -3386 -3387 -3388 -3389 -3390 0
-434 -2667 -3386 -3387 -3388 -3389 -3390 0
-446 -2667 -3386 -3387 -3388 -3389 -3390 0
-2667 -3386 -3387 -3388 -3389 -3390 0
-436 3391 0
-448 3391 0
2416 3391 0
2669 3391 0
436 448 -2416 -2669 -3391 0
-436 3392 0
448 3392 0
-2416 3392 0
2669 3392 0
436 -448 2416 -2669 -3392 0
-436 3393 0
448 3393 0
2416 3393 0
-2669 3393 0
436 -448 -2416 2669 -3393 0
436 3394 0
-448 3394 0
-2416 3394 0
2669 3394 0
-436 448 2416 -2669 -3394 0
436 3395 0
-448 3395 0
2416 3395 0
-2669 3395 0
-436 448 -2416 2669 -3395 0
436 -448 -3391 -3392 -3393 -3394 -3395 0
436 -2416 -3391 -3392 -3393 -3394 -3395 0
436 -2669 -3391 -3392 -3393 -3394 -3395 0
-436 448 -3391 -3392 -3393 -3394 -3395 0
448 -2416 -3391 -3392 -3393 -3394 -3395 0
448 -2669 -3391 -3392 -3393 -3394 -3395 0
-436 -2416 -3391 -3392 -3393 -3394 -3395 0
-448 -2416 -3391 -3392 -3393 -3394 -3395 0
-2416 -3391 -3392 -3393 -3394 -3395 0
-2416 -2669 -3391 -3392 -3393 -3394 -3395 0
-436 -2669 -3391 -3392 -3393 -3394 -3395 0
-448 -2669 -3391 -3392 -3393 -3394 -3395 0
-2669 -3391 -3392 -3393 -3394 -3395 0
-437 3396 0
-449 3396 0
2417 3396 0
2670 3396 0
437 449 -2417 -2670 -3396 0
-437 3397 0
449 3397 0
-2417 3397 0
2670 3397 0
437 -449 2417 -2670 -3397 0
-437 3398 0
449 3398 0
2417 3398 0
-2670 3398 0
437 -449 -2417 2670 -3398 0
437 3399 0
-449 3399 0
-2417 3399 0
2670 3399 0
-437 449 2417 -2670 -3399 0
437 3400 0
-449 3400 0
2417 3400 0
-2670 3400 0
-437 449 -2417 2670 -3400 0
437 -449 -3396 -3397 -3398 -3399 -3400 0
437 -2417 -3396 -3397 -3398 -3399 -3400 0
437 -2670 -3396 -3397 -3398 -3399 -3400 0
-437 449 -3396 -3397 -3398 -3399 -3400 0
449 -2417 -3396 -3397 -3398 -3399 -3400 0
449 -2670 -3396 -3397 -3398 -3399 -3400 0
-437 -2417 -3396 -3397 -3398 -3399 -3400 0
-449 -2417 -3396 -3397 -3398 -3399 -3400 0
-2417 -3396 -3397 -3398 -3399 -3400 0
-2417 -2670 -3396 -3397 -3398 -3399 -3400 0
-437 -2670 -3396 -3397 -3398 -3399 -3400 0
-449 -2670 -3396 -3397 -3398 -3399 -3400 0
-2670 -3396 -3397 -3398 -3399 -3400 0
-445 3401 0
-457 3401 0
445 457 -3401 0
3402 -3401 0
-3402 3401 0
-447 3403 0
-459 3403 0
-3402 3403 0
447 459 3402 -3403 0
3404 -3403 0
3403 -3404 0
-447 -3402 0
-459 -3402 0
446 -458 0
-446 458 0
460 -448 0
448 -460 0
461 -449 0
449 -461 0
-457 3405 0
-469 3405 0
-2425 3405 0
-2678 3405 0
457 469 2425 2678 -3405 0
3406 -3405 0
-3406 3405 0
-459 3407 0
-471 3407 0
-2427 3407 0
-2680 3407 0
-3406 3407 0
459 471 2427 2680 3406 -3407 0
3408 -3407 0
3407 -3408 0
-459 -3406 0
-471 -3406 0
-2427 -3406 0
-2680 -3406 0
-458 3409 0
-470 3409 0
2426 3409 0
2679 3409 0
458 470 -2426 -2679 -3409 0
-458 3410 0
470 3410 0
-2426 3410 0
2679 3410 0
458 -470 2426 -2679 -3410 0
-458 3411 0
470 3411 0
2426 3411 0
-2679 3411 0
458 -470 -2426 2679 -3411 0
458 3412 0
-470 3412 0
-2426 3412 0
2679 3412 0
-458 470 2426 -2679 -3412 0
458 3413 0
-470 3413 0
2426 3413 0
-2679 3413 0
-458 470 -2426 2679 -3413 0
458 -470 -3409 -3410 -3411 -3412 -3413 0
458 -2426 -3409 -3410 -3411 -3412 -3413 0
458 -2679 -3409 -3410 -3411 -3412 -3413 0
-458 470 -3409 -3410 -3411 -3412 -3413 0
470 -2426 -3409 -3410 -3411 -3412 -3413 0
470 -2679 -3409 -3410 -3411 -3412 -3413 0
-458 -2426 -3409 -3410 -3411 -3412 -3413 0
-470 -2426 -3409 -3410 -3411 -3412 -3413 0
-2426 -3409 -3410 -3411 -3412 -3413 0
-2426 -2679 -3409 -3410 -3411 -3412 -3413 0
-458 -2679 -3409 -3410 -3411 -3412 -3413 0
-470 -2679 -3409 -3410 -3411 -3412 -3413 0
-2679 -3409 -3410 -3411 -3412 -3413 0
-460 3414 0
-472 3414 0
2428 3414 0
2681 3414 0
460 472 -2428 -2681 -3414 0
-460 3415 0
472 3415 0
-2428 3415 0
2681 3415 0
460 -472 2428 -2681 -3415 0
-460 3416 0
472 3416 0
2428 3416 0
-2681 3416 0
460 -472 -2428 2681 -3416 0
460 3417 0
-472 3417 0
-2428 3417 0
2681 3417 0
-460 472 2428 -2681 -3417 0
460 3418 0
-472 3418 0
2428 3418 0
-2681 3418 0
-460 472 -2428 2681 -3418 0
460 -472 -3414 -3415 -3416 -3417 -3418 0
460 -2428 -3414 -3415 -3416 -3417 -3418 0
460 -2681 -3414 -3415 -3416 -3417 -3418 0
-460 472 -3414 -3415 -3416 -3417 -3418 0
472 -2428 -3414 -3415 -3416 -3417 -3418 0
472 -2681 -3414 -3415 -3416 -3417 -3418 0
-460 -2428 -3414 -3415 -3416 -3417 -3418 0
-472 -2428 -3414 -3415 -3416 -3417 -3418 0
-2428 -3414 -3415 -3416 -3417 -3418 0
-2428 -2681 -3414 -3415 -3416 -3417 -3418 0
-460 -2681 -3414 -3415 -3416 -3417 -3418 0
-472 -2681 -3414 -3415 -3416 -3417 -3418 0
-2681 -3414 -3415 -3416 -3417 -3418 0
-461 3419 0
-473 3419 0
2429 3419 0
2682 3419 0
461 473 -2429 -2682 -3419 0
-461 3420 0
473 3420 0
-2429 3420 0
2682 3420 0
461 -473 2429 -2682 -3420 0
-461 3421 0
473 3421 0
2429 3421 0
-2682 3421 0
461 -473 -2429 2682 -3421 0
461 3422 0
-473 3422 0
-2429 3422 0
2682 3422 0
-461 473 2429 -2682 -3422 0
461 3423 0
-473 3423 0
2429 3423 0
-2682 3423 0
-461 473 -2429 2682 -3423 0
461 -473 -3419 -3420 -3421 -3422 -3423 0
461 -2429 -3419 -3420 -3421 -3422 -3423 0
461 -2682 -3419 -3420 -3421 -3422 -3423 0
-461 473 -3419 -3420 -3421 -3422 -3423 0
473 -2429 -3419 -3420 -3421 -3422 -3423 0
473 -2682 -3419 -3420 -3421 -3422 -3423 0
-461 -2429 -3419 -3420 -3421 -3422 -3423 0
-473 -2429 -3419 -3420 -3421 -3422 -3423 0
-2429 -3419 -3420 -3421 -3422 -3423 0
-2429 -2682 -3419 -3420 -3421 -3422 -3423 0
-461 -2682 -3419 -3420 -3421 -3422 -3423 0
-473 -2682 -3419 -3420 -3421 -3422 -3423 0
-2682 -3419 -3420 -3421 -3422 -3423 0
-469 3424 0
-481 3424 0
469 481 -3424 0
3425 -3424 0
-3425 3424 0
-471 3426 0
-483 3426 0
-3425 3426 0
471 483 3425 -3426 0
3427 -3426 0
3426 -3427 0
-471 -3425 0
-483 -3425 0
470 -482 0
-470 482 0
484 -472 0
472 -484 0
485 -473 0
473 -485 0
-481 3428 0
-493 3428 0
-2437 3428 0
-2690 3428 0
481 493 2437 2690 -3428 0
3429 -3428 0
-3429 3428 0
-483 3430 0
-495 3430 0
-2439 3430 0
-2692 3430 0
-3429 3430 0
483 495 2439 2692 3429 -3430 0
3431 -3430 0
3430 -3431 0
-483 -3429 0
-495 -3429 0
-2439 -3429 0
-2692 -3429 0
-482 3432 0
-494 3432 0
2438 3432 0
2691 3432 0
482 494 -2438 -2691 -3432 0
-482 3433 0
494 3433 0
-2438 3433 0
2691 3433 0
482 -494 2438 -2691 -3433 0
-482 3434 0
494 3434 0
2438 3434 0
-2691 3434 0
482 -494 -2438 2691 -3434 0
482 3435 0
-494 3435 0
-2438 3435 0
2691 3435 0
-482 494 2438 -2691 -3435 0
482 3436 0
-494 3436 0
2438 3436 0
-2691 3436 0
-482 494 -2438 2691 -3436 0
482 -494 -3432 -3433 -3434 -3435 -3436 0
482 -2438 -3432 -3433 -3434 -3435 -3436 0
482 -2691 -3432 -3433 -3434 -3435 -3436 0
-482 494 -3432 -3433 -3434 -3435 -3436 0
494 -2438 -3432 -3433 -3434 -3435 -3436 0
494 -2691 -3432 -3433 -3434 -3435 -3436 0
-482 -2438 -3432 -3433 -3434 -3435 -3436 0
-494 -2438 -3432 -3433 -3434 -3435 -3436 0
-2438 -3432 -3433 -3434 -3435 -3436 0
-2438 -2691 -3432 -3433 -3434 -3435 -3436 0
-482 -2691 -3432 -3433 -3434 -3435 -3436 0
-494 -2691 -3432 -3433 -3434 -3435 -3436 0
-2691 -3432 -3433 -3434 -3435 -3436 0
-484 3437 0
-496 3437 0
2440 3437 0
2693 3437 0
484 496 -2440 -2693 -3437 0
-484 3438 0
496 3438 0
-2440 3438 0
2693 3438 0
484 -496 2440 -2693 -3438 0
-484 3439 0
496 3439 0
2440 3439 0
-2693 3439 0
484 -496 -2440 2693 -3439 0
484 3440 0
-496 3440 0
-2440 3440 0
2693 3440 0
-484 496 2440 -2693 -3440 0
484 3441 0
-496 3441 0
2440 3441 0
-2693 3441 0
-484 496 -2440 2693 -3441 0
484 -496 -3437 -3438 -3439 -3440 -3441 0
484 -2440 -3437 -3438 -3439 -3440 -3441 0
484 -2693 -3437 -3438 -3439 -3440 -3441 0
-484 496 -3437 -3438 -3439 -3440 -3441 0
496 -2440 -3437 -3438 -3439 -3440 -3441 0
496 -2693 -3437 -3438 -3439 -3440 -3441 0
-484 -2440 -3437 -3438 -3439 -3440 -3441 0
-496 -2440 -3437 -3438 -3439 -3440 -3441 0
-2440 -3437 -3438 -3439 -3440 -3441 0
-2440 -2693 -3437 -3438 -3439 -3440 -3441 0
-484 -2693 -3437 -3438 -3439 -3440 -3441 0
-496 -2693 -3437 -3438 -3439 -3440 -3441 0
-2693 -3437 -3438 -3439 -3440 -3441 0
-485 3442 0
-497 3442 0
2441 3442 0
2694 3442 0
485 497 -2441 -2694 -3442 0
-485 3443 0
497 3443 0
-2441 3443 0
2694 3443 0
485 -497 2441 -2694 -3443 0
-485 3444 0
497 3444 0
2441 3444 0
-2694 3444 0
485 -497 -2441 2694 -3444 0
485 3445 0
-497 3445 0
-2441 3445 0
2694 3445 0
-485 497 2441 -2694 -3445 0
485 3446 0
-497 3446 0
2441 3446 0
-2694 3446 0
-485 497 -2441 2694 -3446 0
485 -497 -3442 -3443 -3444 -3445 -3446 0
485 -2441 -3442 -3443 -3444 -3445 -3446 0
485 -2694 -3442 -3443 -3444 -3445 -3446 0
-485 497 -3442 -3443 -3444 -3445 -3446 0
497 -2441 -3442 -3443 -3444 -3445 -3446 0
497 -2694 -3442 -3443 -3444 -3445 -3446 0
-485 -2441 -3442 -3443 -3444 -3445 -3446 0
-497 -2441 -3442 -3443 -3444 -3445 -3446 0
-2441 -3442 -3443 -3444 -3445 -3446 0
-2441 -2694 -3442 -3443 -3444 -3445 -3446 0
-485 -2694 -3442 -3443 -3444 -3445 -3446 0
-497 -2694 -3442 -3443 -3444 -3445 -3446 0
-2694 -3442 -3443 -3444 -3445 -3446 0
3447 -493 0
493 -3447 0
-495 3448 0
-3447 3448 0
495 3447 -3448 0
3449 -3448 0
3448 -3449 0
-495 -3447 0
-494 0
-496 0
-497 0
3450 -505 0
505 -3450 0
-507 3451 0
-3450 3451 0
507 3450 -3451 0
3452 -3451 0
3451 -3452 0
-507 -3450 0
-506 0
-508 0
-509 0
3453 -817 0
817 -3453 0
-819 3454 0
-3453 3454 0
819 3453 -3454 0
3455 -3454 0
3454 -3455 0
-819 -3453 0
-818 0
-820 0
-821 0
3456 -1129 0
1129 -3456 0
-1131 3457 0
-3456 3457 0
1131 3456 -3457 0
3458 -3457 0
3457 -3458 0
-1131 -3456 0
-1130 0
-1132 0
-1133 0
-505 3459 0
-517 3459 0
-1945 3459 0
-2197 3459 0
505 517 1945 2197 -3459 0
3460 -3459 0
-3460 3459 0
-507 3461 0
-519 3461 0
-1947 3461 0
-2199 3461 0
-3460 3461 0
507 519 1947 2199 3460 -3461 0
3462 -3461 0
3461 -3462 0
-507 -3460 0
-519 -3460 0
-1947 -3460 0
-2199 -3460 0
-506 3463 0
-518 3463 0
1946 3463 0
2198 3463 0
506 518 -1946 -2198 -3463 0
-506 3464 0
518 3464 0
-1946 3464 0
2198 3464 0
506 -518 1946 -2198 -3464 0
-506 3465 0
518 3465 0
1946 3465 0
-2198 3465 0
506 -518 -1946 2198 -3465 0
506 3466 0
-518 3466 0
-1946 3466 0
2198 3466 0
-506 518 1946 -2198 -3466 0
506 3467 0
-518 3467 0
1946 3467 0
-2198 3467 0
-506 518 -1946 2198 -3467 0
506 -518 -3463 -3464 -3465 -3466 -3467 0
506 -1946 -3463 -3464 -3465 -3466 -3467 0
506 -2198 -3463 -3464 -3465 -3466 -3467 0
-506 518 -3463 -3464 -3465 -3466 -3467 0
518 -1946 -3463 -3464 -3465 -3466 -3467 0
518 -2198 -3463 -3464 -3465 -3466 -3467 0
-506 -1946 -3463 -3464 -3465 -3466 -3467 0
-518 -1946 -3463 -3464 -3465 -3466 -3467 0
-1946 -3463 -3464 -3465 -3466 -3467 0
-1946 -2198 -3463 -3464 -3465 -3466 -3467 0
-506 -2198 -3463 -3464 -3465 -3466 -3467 0
-518 -2198 -3463 -3464 -3465 -3466 -3467 0
-2198 -3463 -3464 -3465 -3466 -3467 0
-508 3468 0
-520 3468 0
1948 3468 0
2200 3468 0
508 520 -1948 -2200 -3468 0
-508 3469 0
520 3469 0
-1948 3469 0
2200 3469 0
508 -520 1948 -2200 -3469 0
-508 3470 0
520 3470 0
1948 3470 0
-2200 3470 0
508 -520 -1948 2200 -3470 0
508 3471 0
-520 3471 0
-1948 3471 0
2200 3471 0
-508 520 1948 -2200 -3471 0
508 3472 0
-520 3472 0
1948 3472 0
-2200 3472 0
-508 520 -1948 2200 -3472 0
508 -520 -3468 -3469 -3470 -3471 -3472 0
508 -1948 -3468 -3469 -3470 -3471 -3472 0
508 -2200 -3468 -3469 -3470 -3471 -3472 0
-508 520 -3468 -3469 -3470 -3471 -3472 0
520 -1948 -3468 -3469 -3470 -3471 -3472 0
520 -2200 -3468 -3469 -3470 -3471 -3472 0
-508 -1948 -3468 -3469 -3470 -3471 -3472 0
-520 -1948 -3468 -3469 -3470 -3471 -3472 0
-1948 -3468 -3469 -3470 -3471 -3472 0
-1948 -2200 -3468 -3469 -3470 -3471 -3472 0
-508 -2200 -3468 -3469 -3470 -3471 -3472 0
-520 -2200 -3468 -3469 -3470 -3471 -3472 0
-2200 -3468 -3469 -3470 -3471 -3472 0
-509 3473 0
-521 3473 0
1949 3473 0
2201 3473 0
509 521 -1949 -2201 -3473 0
-509 3474 0
521 3474 0
-1949 3474 0
2201 3474 0
509 -521 1949 -2201 -3474 0
-509 3475 0
521 3475 0
1949 3475 0
-2201 3475 0
509 -521 -1949 2201 -3475 0
509 3476 0
-521 3476 0
-1949 3476 0
2201 3476 0
-509 521 1949 -2201 -3476 0
509 3477 0
-521 3477 0
1949 3477 0
-2201 3477 0
-509 521 -1949 2201 -3477 0
509 -521 -3473 -3474 -3475 -3476 -3477 0
509 -1949 -3473 -3474 -3475 -3476 -3477 0
509 -2201 -3473 -3474 -3475 -3476 -3477 0
-509 521 -3473 -3474 -3475 -3476 -3477 0
521 -1949 -3473 -3474 -3475 -3476 -3477 0
521 -2201 -3473 -3474 -3475 -3476 -3477 0
-509 -1949 -3473 -3474 -3475 -3476 -3477 0
-521 -1949 -3473 -3474 -3475 -3476 -3477 0
-1949 -3473 -3474 -3475 -3476 -3477 0
-1949 -2201 -3473 -3474 -3475 -3476 -3477 0
-509 -2201 -3473 -3474 -3475 -3476 -3477 0
-521 -2201 -3473 -3474 -3475 -3476 -3477 0
-2201 -3473 -3474 -3475 -3476 -3477 0
-817 3478 0
-829 3478 0
-1957 3478 0
-2209 3478 0
817 829 1957 2209 -3478 0
3479 -3478 0
-3479 3478 0
-819 3480 0
-831 3480 0
-1959 3480 0
-2211 3480 0
-3479 3480 0
819 831 1959 2211 3479 -3480 0
3481 -3480 0
3480 -3481 0
-819 -3479 0
-831 -3479 0
-1959 -3479 0
-2211 -3479 0
-818 3482 0
-830 3482 0
1958 3482 0
2210 3482 0
818 830 -1958 -2210 -3482 0
-818 3483 0
830 3483 0
-1958 3483 0
2210 3483 0
818 -830 1958 -2210 -3483 0
-818 3484 0
830 3484 0
1958 3484 0
-2210 3484 0
818 -830 -1958 2210 -3484 0
818 3485 0
-830 3485 0
-1958 3485 0
2210 3485 0
-818 830 1958 -2210 -3485 0
818 3486 0
-830 3486 0
1958 3486 0
-2210 3486 0
-818 830 -1958 2210 -3486 0
818 -830 -3482 -3483 -3484 -3485 -3486 0
818 -1958 -3482 -3483 -3484 -3485 -3486 0
818 -2210 -3482 -3483 -3484 -3485 -3486 0
-818 830 -3482 -3483 -3484 -3485 -3486 0
830 -1958 -3482 -3483 -3484 -3485 -3486 0
830 -2210 -3482 -3483 -3484 -3485 -3486 0
-818 -1958 -3482 -3483 -3484 -3485 -3486 0
-830 -1958 -3482 -3483 -3484 -3485 -3486 0
-1958 -3482 -3483 -3484 -3485 -3486 0
-1958 -2210 -3482 -3483 -3484 -3485 -3486 0
-818 -2210 -3482 -3483 -3484 -3485 -3486 0
-830 -2210 -3482 -3483 -3484 -3485 -3486 0
-2210 -3482 -3483 -3484 -3485 -3486 0
-820 3487 0
-832 3487 0
1960 3487 0
2212 3487 0
820 832 -1960 -2212 -3487 0
-820 3488 0
832 3488 0
-1960 3488 0
2212 3488 0
820 -832 1960 -2212 -3488 0
-820 3489 0
832 3489 0
1960 3489 0
-2212 3489 0
820 -832 -1960 2212 -3489 0
820 3490 0
-832 3490 0
-1960 3490 0
2212 3490 0
-820 832 1960 -2212 -3490 0
820 3491 0
-832 3491 0
1960 3491 0
-2212 3491 0
-820 832 -1960 2212 -3491 0
820 -832 -3487 -3488 -3489 -3490 -3491 0
820 -1960 -3487 -3488 -3489 -3490 -3491 0
820 -2212 -3487 -3488 -3489 -3490 -3491 0
-820 832 -3487 -3488 -3489 -3490 -3491 0
832 -1960 -3487 -3488 -3489 -3490 -3491 0
832 -2212 -3487 -3488 -3489 -3490 -3491 0
-820 -1960 -3487 -3488 -3489 -3490 -3491 0
-832 -1960 -3487 -3488 -3489 -3490 -3491 0
-1960 -3487 -3488 -3489 -3490 -3491 0
-1960 -2212 -3487 -3488 -3489 -3490 -3491 0
-820 -2212 -3487 -3488 -3489 -3490 -3491 0
-832 -2212 -3487 -3488 -3489 -3490 -3491 0
-2212 -3487 -3488 -3489 -3490 -3491 0
-821 3492 0
-833 3492 0
1961 3492 0
2213 3492 0
821 833 -1961 -2213 -3492 0
-821 3493 0
833 3493 0
-1961 3493 0
2213 3493 0
821 -833 1961 -2213 -3493 0
-821 3494 0
833 3494 0
1961 3494 0
-2213 3494 0
821 -833 -1961 2213 -3494 0
821 3495 0
-833 3495 0
-1961 3495 0
2213 3495 0
-821 833 1961 -2213 -3495 0
821 3496 0
-833 3496 0
1961 3496 0
-2213 3496 0
-821 833 -1961 2213 -3496 0
821 -833 -3492 -3493 -3494 -3495 -3496 0
821 -1961 -3492 -3493 -3494 -3495 -3496 0
821 -2213 -3492 -3493 -3494 -3495 -3496 0
-821 833 -3492 -3493 -3494 -3495 -3496 0
833 -1961 -3492 -3493 -3494 -3495 -3496 0
833 -2213 -3492 -3493 -3494 -3495 -3496 0
-821 -1961 -3492 -3493 -3494 -3495 -3496 0
-833 -1961 -3492 -3493 -3494 -3495 -3496 0
-1961 -3492 -3493 -3494 -3495 -3496 0
-1961 -2213 -3492 -3493 -3494 -3495 -3496 0
-821 -2213 -3492 -3493 -3494 -3495 -3496 0
-833 -2213 -3492 -3493 -3494 -3495 -3496 0
-2213 -3492 -3493 -3494 -3495 -3496 0
-1129 3497 0
-1141 3497 0
-1969 3497 0
-2221 3497 0
1129 1141 1969 2221 -3497 0
3498 -3497 0
-3498 3497 0
-1131 3499 0
-1143 3499 0
-1971 3499 0
-2223 3499 0
-3498 3499 0
1131 1143 1971 2223 3498 -3499 0
3500 -3499 0
3499 -3500 0
-1131 -3498 0
-1143 -3498 0
-1971 -3498 0
-2223 -3498 0
-1130 3501 0
-1142 3501 0
1970 3501 0
2222 3501 0
1130 1142 -1970 -2222 -3501 0
-1130 3502 0
1142 3502 0
-1970 3502 0
2222 3502 0
1130 -1142 1970 -2222 -3502 0
-1130 3503 0
1142 3503 0
1970 3503 0
-2222 3503 0
1130 -1142 -1970 2222 -3503 0
1130 3504 0
-1142 3504 0
-1970 3504 0
2222 3504 0
-1130 1142 1970 -2222 -3504 0
1130 3505 0
-1142 3505 0
1970 3505 0
-2222 3505 0
-1130 1142 -1970 2222 -3505 0
1130 -1142 -3501 -3502 -3503 -3504 -3505 0
1130 -1970 -3501 -3502 -3503 -3504 -3505 0
1130 -2222 -3501 -3502 -3503 -3504 -3505 0
-1130 1142 -3501 -3502 -3503 -3504 -3505 0
1142 -1970 -3501 -3502 -3503 -3504 -3505 0
1142 -2222 -3501 -3502 -3503 -3504 -3505 0
-1130 -1970 -3501 -3502 -3503 -3504 -3505 0
-1142 -1970 -3501 -3502 -3503 -3504 -3505 0
-1970 -3501 -3502 -3503 -3504 -3505 0
-1970 -2222 -3501 -3502 -3503 -3504 -3505 0
-1130 -2222 -3501 -3502 -3503 -3504 -3505 0
-1142 -2222 -3501 -3502 -3503 -3504 -3505 0
-2222 -3501 -3502 -3503 -3504 -3505 0
-1132 3506 0
-1144 3506 0
1972 3506 0
2224 3506 0
1132 1144 -1972 -2224 -3506 0
-1132 3507 0
1144 3507 0
-1972 3507 0
2224 3507 0
1132 -1144 1972 -2224 -3507 0
-1132 3508 0
1144 3508 0
1972 3508 0
-2224 3508 0
1132 -1144 -1972 2224 -3508 0
1132 3509 0
-1144 3509 0
-1972 3509 0
2224 3509 0
-1132 1144 1972 -2224 -3509 0
1132 3510 0
-1144 3510 0
1972 3510 0
-2224 3510 0
-1132 1144 -1972 2224 -3510 0
1132 -1144 -3506 -3507 -3508 -3509 -3510 0
1132 -1972 -3506 -3507 -3508 -3509 -3510 0
1132 -2224 -3506 -3507 -3508 -3509 -3510 0
-1132 1144 -3506 -3507 -3508 -3509 -3510 0
1144 -1972 -3506 -3507 -3508 -3509 -3510 0
1144 -2224 -3506 -3507 -3508 -3509 -3510 0
-1132 -1972 -3506 -3507 -3508 -3509 -3510 0
-1144 -1972 -3506 -3507 -3508 -3509 -3510 0
-1972 -3506 -3507 -3508 -3509 -3510 0
-1972 -2224 -3506 -3507 -3508 -3509 -3510 0
-1132 -2224 -3506 -3507 -3508 -3509 -3510 0
-1144 -2224 -3506 -3507 -3508 -3509 -3510 0
-2224 -3506 -3507 -3508 -3509 -3510 0
-1133 3511 0
-1145 3511 0
1973 3511 0
2225 3511 0
1133 1145 -1973 -2225 -3511 0
-1133 3512 0
1145 3512 0
-1973 3512 0
2225 3512 0
1133 -1145 1973 -2225 -3512 0
-1133 3513 0
1145 3513 0
1973 3513 0
-2225 3513 0
1133 -1145 -1973 2225 -3513 0
1133 3514 0
-1145 3514 0
-1973 3514 0
2225 3514 0
-1133 1145 1973 -2225 -3514 0
1133 3515 0
-1145 3515 0
1973 3515 0
-2225 3515 0
-1133 1145 -1973 2225 -3515 0
1133 -1145 -3511 -3512 -3513 -3514 -3515 0
1133 -1973 -3511 -3512 -3513 -3514 -3515 0
1133 -2225 -3511 -3512 -3513 -3514 -3515 0
-1133 1145 -3511 -3512 -3513 -3514 -3515 0
1145 -1973 -3511 -3512 -3513 -3514 -3515 0
1145 -2225 -3511 -3512 -3513 -3514 -3515 0
-1133 -1973 -3511 -3512 -3513 -3514 -3515 0
-1145 -1973 -3511 -3512 -3513 -3514 -3515 0
-1973 -3511 -3512 -3513 -3514 -3515 0
-1973 -2225 -3511 -3512 -3513 -3514 -3515 0
-1133 -2225 -3511 -3512 -3513 -3514 -3515 0
-1145 -2225 -3511 -3512 -3513 -3514 -3515 0
-2225 -3511 -3512 -3513 -3514 -3515 0
-517 3516 0
-529 3516 0
517 529 -3516 0
3517 -3516 0
-3517 3516 0
-519 3518 0
-531 3518 0
-3517 3518 0
519 531 3517 -3518 0
3519 -3518 0
3518 -3519 0
-519 -3517 0
-531 -3517 0
518 -530 0
-518 530 0
532 -520 0
520 -532 0
533 -521 0
521 -533 0
-829 3520 0
-841 3520 0
829 841 -3520 0
3521 -3520 0
-3521 3520 0
-831 3522 0
-843 3522 0
-3521 3522 0
831 843 3521 -3522 0
3523 -3522 0
3522 -3523 0
-831 -3521 0
-843 -3521 0
842 -830 0
830 -842 0
844 -832 0
832 -844 0
845 -833 0
833 -845 0
-1141 3524 0
-1153 3524 0
1141 1153 -3524 0
3525 -3524 0
-3525 3524 0
-1143 3526 0
-1155 3526 0
-3525 3526 0
1143 1155 3525 -3526 0
3527 -3526 0
3526 -3527 0
-1143 -3525 0
-1155 -3525 0
1154 -1142 0
1142 -1154 0
1156 -1144 0
1144 -1156 0
1157 -1145 0
1145 -1157 0
-529 3528 0
-541 3528 0
529 541 -3528 0
3529 -3528 0
-3529 3528 0
-531 3530 0
-543 3530 0
-3529 3530 0
531 543 3529 -3530 0
3531 -3530 0
3530 -3531 0
-531 -3529 0
-543 -3529 0
542 -530 0
530 -542 0
544 -532 0
532 -544 0
545 -533 0
533 -545 0
-841 3532 0
-853 3532 0
841 853 -3532 0
3533 -3532 0
-3533 3532 0
-843 3534 0
-855 3534 0
-3533 3534 0
843 855 3533 -3534 0
3535 -3534 0
3534 -3535 0
-843 -3533 0
-855 -3533 0
854 -842 0
842 -854 0
856 -844 0
844 -856 0
857 -845 0
845 -857 0
-1153 3536 0
-1165 3536 0
1153 1165 -3536 0
3537 -3536 0
-3537 3536 0
-1155 3538 0
-1167 3538 0
-3537 3538 0
1155 1167 3537 -3538 0
3539 -3538 0
3538 -3539 0
-1155 -3537 0
-1167 -3537 0
1166 -1154 0
1154 -1166 0
1168 -1156 0
1156 -1168 0
1169 -1157 0
1157 -1169 0
-541 3540 0
-553 3540 0
541 553 -3540 0
3541 -3540 0
-3541 3540 0
-543 3542 0
-555 3542 0
-3541 3542 0
543 555 3541 -3542 0
3543 -3542 0
3542 -3543 0
-543 -3541 0
-555 -3541 0
554 -542 0
542 -554 0
556 -544 0
544 -556 0
557 -545 0
545 -557 0
-853 3544 0
-865 3544 0
853 865 -3544 0
3545 -3544 0
-3545 3544 0
-855 3546 0
-867 3546 0
-3545 3546 0
855 867 3545 -3546 0
3547 -3546 0
3546 -3547 0
-855 -3545 0
-867 -3545 0
866 -854 0
854 -866 0
868 -856 0
856 -868 0
869 -857 0
857 -869 0
-1165 3548 0
-1177 3548 0
1165 1177 -3548 0
3549 -3548 0
-3549 3548 0
-1167 3550 0
-1179 3550 0
-3549 3550 0
1167 1179 3549 -3550 0
3551 -3550 0
3550 -3551 0
-1167 -3549 0
-1179 -3549 0
1178 -1166 0
1166 -1178 0
1180 -1168 0
1168 -1180 0
1181 -1169 0
1169 -1181 0
-553 3552 0
-565 3552 0
-1981 3552 0
-2233 3552 0
553 565 1981 2233 -3552 0
3553 -3552 0
-3553 3552 0
-555 3554 0
-567 3554 0
-1983 3554 0
-2235 3554 0
-3553 3554 0
555 567 1983 2235 3553 -3554 0
3555 -3554 0
3554 -3555 0
-555 -3553 0
-567 -3553 0
-1983 -3553 0
-2235 -3553 0
-554 3556 0
-566 3556 0
1982 3556 0
2234 3556 0
554 566 -1982 -2234 -3556 0
-554 3557 0
566 3557 0
-1982 3557 0
2234 3557 0
554 -566 1982 -2234 -3557 0
-554 3558 0
566 3558 0
1982 3558 0
-2234 3558 0
554 -566 -1982 2234 -3558 0
554 3559 0
-566 3559 0
-1982 3559 0
2234 3559 0
-554 566 1982 -2234 -3559 0
554 3560 0
-566 3560 0
1982 3560 0
-2234 3560 0
-554 566 -1982 2234 -3560 0
554 -566 -3556 -3557 -3558 -3559 -3560 0
554 -1982 -3556 -3557 -3558 -3559 -3560 0
554 -2234 -3556 -3557 -3558 -3559 -3560 0
-554 566 -3556 -3557 -3558 -3559 -3560 0
566 -1982 -3556 -3557 -3558 -3559 -3560 0
566 -2234 -3556 -3557 -3558 -3559 -3560 0
-554 -1982 -3556 -3557 -3558 -3559 -3560 0
-566 -1982 -3556 -3557 -3558 -3559 -3560 0
-1982 -3556 -3557 -3558 -3559 -3560 0
-1982 -2234 -3556 -3557 -3558 -3559 -3560 0
-554 -2234 -3556 -3557 -3558 -3559 -3560 0
-566 -2234 -3556 -3557 -3558 -3559 -3560 0
-2234 -3556 -3557 -3558 -3559 -3560 0
-556 3561 0
-568 3561 0
1984 3561 0
2236 3561 0
556 568 -1984 -2236 -3561 0
-556 3562 0
568 3562 0
-1984 3562 0
2236 3562 0
556 -568 1984 -2236 -3562 0
-556 3563 0
568 3563 0
1984 3563 0
-2236 3563 0
556 -568 -1984 2236 -3563 0
556 3564 0
-568 3564 0
-1984 3564 0
2236 3564 0
-556 568 1984 -2236 -3564 0
556 3565 0
-568 3565 0
1984 3565 0
-2236 3565 0
-556 568 -1984 2236 -3565 0
556 -568 -3561 -3562 -3563 -3564 -3565 0
556 -1984 -3561 -3562 -3563 -3564 -3565 0
556 -2236 -3561 -3562 -3563 -3564 -3565 0
-556 568 -3561 -3562 -3563 -3564 -3565 0
568 -1984 -3561 -3562 -3563 -3564 -3565 0
568 -2236 -3561 -3562 -3563 -3564 -3565 0
-556 -1984 -3561 -3562 -3563 -3564 -3565 0
-568 -1984 -3561 -3562 -3563 -3564 -3565 0
-1984 -3561 -3562 -3563 -3564 -3565 0
-1984 -2236 -3561 -3562 -3563 -3564 -3565 0
-556 -2236 -3561 -3562 -3563 -3564 -3565 0
-568 -2236 -3561 -3562 -3563 -3564 -3565 0
-2236 -3561 -3562 -3563 -3564 -3565 0
-557 3566 0
-569 3566 0
1985 3566 0
2237 3566 0
557 569 -1985 -2237 -3566 0
-557 3567 0
569 3567 0
-1985 3567 0
2237 3567 0
557 -569 1985 -2237 -3567 0
-557 3568 0
569 3568 0
1985 3568 0
-2237 3568 0
557 -569 -1985 2237 -3568 0
557 3569 0
-569 3569 0
-1985 3569 0
2237 3569 0
-557 569 1985 -2237 -3569 0
557 3570 0
-569 3570 0
1985 3570 0
-2237 3570 0
-557 569 -1985 2237 -3570 0
557 -569 -3566 -3567 -3568 -3569 -3570 0
557 -1985 -3566 -3567 -3568 -3569 -3570 0
557 -2237 -3566 -3567 -3568 -3569 -3570 0
-557 569 -3566 -3567 -3568 -3569 -3570 0
569 -1985 -3566 -3567 -3568 -3569 -3570 0
569 -2237 -3566 -3567 -3568 -3569 -3570 0
-557 -1985 -3566 -3567 -3568 -3569 -3570 0
-569 -1985 -3566 -3567 -3568 -3569 -3570 0
-1985 -3566 -3567 -3568 -3569 -3570 0
-1985 -2237 -3566 -3567 -3568 -3569 -3570 0
-557 -2237 -3566 -3567 -3568 -3569 -3570 0
-569 -2237 -3566 -3567 -3568 -3569 -3570 0
-2237 -3566 -3567 -3568 -3569 -3570 0
-865 3571 0
-877 3571 0
-1993 3571 0
-2245 3571 0
865 877 1993 2245 -3571 0
3572 -3571 0
-3572 3571 0
-867 3573 0
-879 3573 0
-1995 3573 0
-2247 3573 0
-3572 3573 0
867 879 1995 2247 3572 -3573 0
3574 -3573 0
3573 -3574 0
-867 -3572 0
-879 -3572 0
-1995 -3572 0
-2247 -3572 0
-866 3575 0
-878 3575 0
1994 3575 0
2246 3575 0
866 878 -1994 -2246 -3575 0
-866 3576 0
878 3576 0
-1994 3576 0
2246 3576 0
866 -878 1994 -2246 -3576 0
-866 3577 0
878 3577 0
1994 3577 0
-2246 3577 0
866 -878 -1994 2246 -3577 0
866 3578 0
-878 3578 0
-1994 3578 0
2246 3578 0
-866 878 1994 -2246 -3578 0
866 3579 0
-878 3579 0
1994 3579 0
-2246 3579 0
-866 878 -1994 2246 -3579 0
866 -878 -3575 -3576 -3577 -3578 -3579 0
866 -1994 -3575 -3576 -3577 -3578 -3579 0
866 -2246 -3575 -3576 -3577 -3578 -3579 0
-866 878 -3575 -3576 -3577 -3578 -3579 0
878 -1994 -3575 -3576 -3577 -3578 -3579 0
878 -2246 -3575 -3576 -3577 -3578 -3579 0
-866 -1994 -3575 -3576 -3577 -3578 -3579 0
-878 -1994 -3575 -3576 -3577 -3578 -3579 0
-1994 -3575 -3576 -3577 -3578 -3579 0
-1994 -2246 -3575 -3576 -3577 -3578 -3579 0
-866 -2246 -3575 -3576 -3577 -3578 -3579 0
-878 -2246 -3575 -3576 -3577 -3578 -3579 0
-2246 -3575 -3576 -3577 -3578 -3579 0
-868 3580 0
-880 3580 0
1996 3580 0
2248 3580 0
868 880 -1996 -2248 -3580 0
-868 3581 0
880 3581 0
-1996 3581 0
2248 3581 0
868 -880 1996 -2248 -3581 0
-868 3582 0
880 3582 0
1996 3582 0
-2248 3582 0
868 -880 -1996 2248 -3582 0
868 3583 0
-880 3583 0
-1996 3583 0
2248 3583 0
-868 880 1996 -2248 -3583 0
868 3584 0
-880 3584 0
1996 3584 0
-2248 3584 0
-868 880 -1996 2248 -3584 0
868 -880 -3580 -3581 -3582 -3583 -3584 0
868 -1996 -3580 -3581 -3582 -3583 -3584 0
868 -2248 -3580 -3581 -3582 -3583 -3584 0
-868 880 -3580 -3581 -3582 -3583 -3584 0
880 -1996 -3580 -3581 -3582 -3583 -3584 0
880 -2248 -3580 -3581 -3582 -3583 -3584 0
-868 -1996 -3580 -3581 -3582 -3583 -3584 0
-880 -1996 -3580 -3581 -3582 -3583 -3584 0
-1996 -3580 -3581 -3582 -3583 -3584 0
-1996 -2248 -3580 -3581 -3582 -3583 -3584 0
-868 -2248 -3580 -3581 -3582 -3583 -3584 0
-880 -2248 -3580 -3581 -3582 -3583 -3584 0
-2248 -3580 -3581 -3582 -3583 -3584 0
-869 3585 0
-881 3585 0
1997 3585 0
2249 3585 0
869 881 -1997 -2249 -3585 0
-869 3586 0
881 3586 0
-1997 3586 0
2249 3586 0
869 -881 1997 -2249 -3586 0
-869 3587 0
881 3587 0
1997 3587 0
-2249 3587 0
869 -881 -1997 2249 -3587 0
869 3588 0
-881 3588 0
-1997 3588 0
2249 3588 0
-869 881 1997 -2249 -3588 0
869 3589 0
-881 3589 0
1997 3589 0
-2249 3589 0
-869 881 -1997 2249 -3589 0
869 -881 -3585 -3586 -3587 -3588 -3589 0
869 -1997 -3585 -3586 -3587 -3588 -3589 0
869 -2249 -3585 -3586 -3587 -3588 -3589 0
-869 881 -3585 -3586 -3587 -3588 -3589 0
881 -1997 -3585 -3586 -3587 -3588 -3589 0
881 -2249 -3585 -3586 -3587 -3588 -3589 0
-869 -1997 -3585 -3586 -3587 -3588 -3589 0
-881 -1997 -3585 -3586 -3587 -3588 -3589 0
-1997 -3585 -3586 -3587 -3588 -3589 0
-1997 -2249 -3585 -3586 -3587 -3588 -3589 0
-869 -2249 -3585 -3586 -3587 -3588 -3589 0
-881 -2249 -3585 -3586 -3587 -3588 -3589 0
-2249 -3585 -3586 -3587 -3588 -3589 0
-1177 3590 0
-1189 3590 0
-2005 3590 0
-2257 3590 0
1177 1189 2005 2257 -3590 0
3591 -3590 0
-3591 3590 0
-1179 3592 0
-1191 3592 0
-2007 3592 0
-2259 3592 0
-3591 3592 0
1179 1191 2007 2259 3591 -3592 0
3593 -3592 0
3592 -3593 0
-1179 -3591 0
-1191 -3591 0
-2007 -3591 0
-2259 -3591 0
-1178 3594 0
-1190 3594 0
2006 3594 0
2258 3594 0
1178 1190 -2006 -2258 -3594 0
-1178 3595 0
1190 3595 0
-2006 3595 0
2258 3595 0
1178 -1190 2006 -2258 -3595 0
-1178 3596 0
1190 3596 0
2006 3596 0
-2258 3596 0
1178 -1190 -2006 2258 -3596 0
1178 3597 0
-1190 3597 0
-2006 3597 0
2258 3597 0
-1178 1190 2006 -2258 -3597 0
1178 3598 0
-1190 3598 0
2006 3598 0
-2258 3598 0
-1178 1190 -2006 2258 -3598 0
1178 -1190 -3594 -3595 -3596 -3597 -3598 0
1178 -2006 -3594 -3595 -3596 -3597 -3598 0
1178 -2258 -3594 -3595 -3596 -3597 -3598 0
-1178 1190 -3594 -3595 -3596 -3597 -3598 0
1190 -2006 -3594 -3595 -3596 -3597 -3598 0
1190 -2258 -3594 -3595 -3596 -3597 -3598 0
-1178 -2006 -3594 -3595 -3596 -3597 -3598 0
-1190 -2006 -3594 -3595 -3596 -3597 -3598 0
-2006 -3594 -3595 -3596 -3597 -3598 0
-2006 -2258 -3594 -3595 -3596 -3597 -3598 0
-1178 -2258 -3594 -3595 -3596 -3597 -3598 0
-1190 -2258 -3594 -3595 -3596 -3597 -3598 0
-2258 -3594 -3595 -3596 -3597 -3598 0
-1180 3599 0
-1192 3599 0
2008 3599 0
2260 3599 0
1180 1192 -2008 -2260 -3599 0
-1180 3600 0
1192 3600 0
-2008 3600 0
2260 3600 0
1180 -1192 2008 -2260 -3600 0
-1180 3601 0
1192 3601 0
2008 3601 0
-2260 3601 0
1180 -1192 -2008 2260 -3601 0
1180 3602 0
-1192 3602 0
-2008 3602 0
2260 3602 0
-1180 1192 2008 -2260 -3602 0
1180 3603 0
-1192 3603 0
2008 3603 0
-2260 3603 0
-1180 1192 -2008 2260 -3603 0
1180 -1192 -3599 -3600 -3601 -3602 -3603 0
1180 -2008 -3599 -3600 -3601 -3602 -3603 0
1180 -2260 -3599 -3600 -3601 -3602 -3603 0
-1180 1192 -3599 -3600 -3601 -3602 -3603 0
1192 -2008 -3599 -3600 -3601 -3602 -3603 0
1192 -2260 -3599 -3600 -3601 -3602 -3603 0
-1180 -2008 -3599 -3600 -3601 -3602 -3603 0
-1192 -2008 -3599 -3600 -3601 -3602 -3603 0
-2008 -3599 -3600 -3601 -3602 -3603 0
-2008 -2260 -3599 -3600 -3601 -3602 -3603 0
-1180 -2260 -3599 -3600 -3601 -3602 -3603 0
-1192 -2260 -3599 -3600 -3601 -3602 -3603 0
-2260 -3599 -3600 -3601 -3602 -3603 0
-1181 3604 0
-1193 3604 0
2009 3604 0
2261 3604 0
1181 1193 -2009 -2261 -3604 0
-1181 3605 0
1193 3605 0
-2009 3605 0
2261 3605 0
1181 -1193 2009 -2261 -3605 0
-1181 3606 0
1193 3606 0
2009 3606 0
-2261 3606 0
1181 -1193 -2009 2261 -3606 0
1181 3607 0
-1193 3607 0
-2009 3607 0
2261 3607 0
-1181 1193 2009 -2261 -3607 0
1181 3608 0
-1193 3608 0
2009 3608 0
-2261 3608 0
-1181 1193 -2009 2261 -3608 0
1181 -1193 -3604 -3605 -3606 -3607 -3608 0
1181 -2009 -3604 -3605 -3606 -3607 -3608 0
1181 -2261 -3604 -3605 -3606 -3607 -3608 0
-1181 1193 -3604 -3605 -3606 -3607 -3608 0
1193 -2009 -3604 -3605 -3606 -3607 -3608 0
1193 -2261 -3604 -3605 -3606 -3607 -3608 0
-1181 -2009 -3604 -3605 -3606 -3607 -3608 0
-1193 -2009 -3604 -3605 -3606 -3607 -3608 0
-2009 -3604 -3605 -3606 -3607 -3608 0
-2009 -2261 -3604 -3605 -3606 -3607 -3608 0
-1181 -2261 -3604 -3605 -3606 -3607 -3608 0
-1193 -2261 -3604 -3605 -3606 -3607 -3608 0
-2261 -3604 -3605 -3606 -3607 -3608 0
-565 3609 0
-577 3609 0
565 577 -3609 0
3610 -3609 0
-3610 3609 0
-567 3611 0
-579 3611 0
-3610 3611 0
567 579 3610 -3611 0
3612 -3611 0
3611 -3612 0
-567 -3610 0
-579 -3610 0
566 -578 0
-566 578 0
580 -568 0
568 -580 0
581 -569 0
569 -581 0
-877 3613 0
-889 3613 0
877 889 -3613 0
3614 -3613 0
-3614 3613 0
-879 3615 0
-891 3615 0
-3614 3615 0
879 891 3614 -3615 0
3616 -3615 0
3615 -3616 0
-879 -3614 0
-891 -3614 0
890 -878 0
878 -890 0
892 -880 0
880 -892 0
893 -881 0
881 -893 0
-1189 3617 0
-1201 3617 0
1189 1201 -3617 0
3618 -3617 0
-3618 3617 0
-1191 3619 0
-1203 3619 0
-3618 3619 0
1191 1203 3618 -3619 0
3620 -3619 0
3619 -3620 0
-1191 -3618 0
-1203 -3618 0
1202 -1190 0
1190 -1202 0
1204 -1192 0
1192 -1204 0
1205 -1193 0
1193 -1205 0
-577 3621 0
-589 3621 0
577 589 -3621 0
3622 -3621 0
-3622 3621 0
-579 3623 0
-591 3623 0
-3622 3623 0
579 591 3622 -3623 0
3624 -3623 0
3623 -3624 0
-579 -3622 0
-591 -3622 0
590 -578 0
578 -590 0
592 -580 0
580 -592 0
593 -581 0
581 -593 0
-889 3625 0
-901 3625 0
889 901 -3625 0
3626 -3625 0
-3626 3625 0
-891 3627 0
-903 3627 0
-3626 3627 0
891 903 3626 -3627 0
3628 -3627 0
3627 -3628 0
-891 -3626 0
-903 -3626 0
902 -890 0
890 -902 0
904 -892 0
892 -904 0
905 -893 0
893 -905 0
-1201 3629 0
-1213 3629 0
1201 1213 -3629 0
3630 -3629 0
-3630 3629 0
-1203 3631 0
-1215 3631 0
-3630 3631 0
1203 1215 3630 -3631 0
3632 -3631 0
3631 -3632 0
-1203 -3630 0
-1215 -3630 0
1214 -1202 0
1202 -1214 0
1216 -1204 0
1204 -1216 0
1217 -1205 0
1205 -1217 0
-589 3633 0
-601 3633 0
589 601 -3633 0
3634 -3633 0
-3634 3633 0
-591 3635 0
-603 3635 0
-3634 3635 0
591 603 3634 -3635 0
3636 -3635 0
3635 -3636 0
-591 -3634 0
-603 -3634 0
602 -590 0
590 -602 0
604 -592 0
592 -604 0
605 -593 0
593 -605 0
-901 3637 0
-913 3637 0
901 913 -3637 0
3638 -3637 0
-3638 3637 0
-903 3639 0
-915 3639 0
-3638 3639 0
903 915 3638 -3639 0
3640 -3639 0
3639 -3640 0
-903 -3638 0
-915 -3638 0
914 -902 0
902 -914 0
916 -904 0
904 -916 0
917 -905 0
905 -917 0
-1213 3641 0
-1225 3641 0
1213 1225 -3641 0
3642 -3641 0
-3642 3641 0
-1215 3643 0
-1227 3643 0
-3642 3643 0
1215 1227 3642 -3643 0
3644 -3643 0
3643 -3644 0
-1215 -3642 0
-1227 -3642 0
1226 -1214 0
1214 -1226 0
1228 -1216 0
1216 -1228 0
1229 -1217 0
1217 -1229 0
-601 3645 0
-613 3645 0
-2017 3645 0
-2269 3645 0
601 613 2017 2269 -3645 0
3646 -3645 0
-3646 3645 0
-603 3647 0
-615 3647 0
-2019 3647 0
-2271 3647 0
-3646 3647 0
603 615 2019 2271 3646 -3647 0
3648 -3647 0
3647 -3648 0
-603 -3646 0
-615 -3646 0
-2019 -3646 0
-2271 -3646 0
-602 3649 0
-614 3649 0
2018 3649 0
2270 3649 0
602 614 -2018 -2270 -3649 0
-602 3650 0
614 3650 0
-2018 3650 0
2270 3650 0
602 -614 2018 -2270 -3650 0
-602 3651 0
614 3651 0
2018 3651 0
-2270 3651 0
602 -614 -2018 2270 -3651 0
602 3652 0
-614 3652 0
-2018 3652 0
2270 3652 0
-602 614 2018 -2270 -3652 0
602 3653 0
-614 3653 0
2018 3653 0
-2270 3653 0
-602 614 -2018 2270 -3653 0
602 -614 -3649 -3650 -3651 -3652 -3653 0
602 -2018 -3649 -3650 -3651 -3652 -3653 0
602 -2270 -3649 -3650 -3651 -3652 -3653 0
-602 614 -3649 -3650 -3651 -3652 -3653 0
614 -2018 -3649 -3650 -3651 -3652 -3653 0
614 -2270 -3649 -3650 -3651 -3652 -3653 0
-602 -2018 -3649 -3650 -3651 -3652 -3653 0
-614 -2018 -3649 -3650 -3651 -3652 -3653 0
-2018 -3649 -3650 -3651 -3652 -3653 0
-2018 -2270 -3649 -3650 -3651 -3652 -3653 0
-602 -2270 -3649 -3650 -3651 -3652 -3653 0
-614 -2270 -3649 -3650 -3651 -3652 -3653 0
-2270 -3649 -3650 -3651 -3652 -3653 0
-604 3654 0
-616 3654 0
2020 3654 0
2272 3654 0
604 616 -2020 -2272 -3654 0
-604 3655 0
616 3655 0
-2020 3655 0
2272 3655 0
604 -616 2020 -2272 -3655 0
-604 3656 0
616 3656 0
2020 3656 0
-2272 3656 0
604 -616 -2020 2272 -3656 0
604 3657 0
-616 3657 0
-2020 3657 0
2272 3657 0
-604 616 2020 -2272 -3657 0
604 3658 0
-616 3658 0
2020 3658 0
-2272 3658 0
-604 616 -2020 2272 -3658 0
604 -616 -3654 -3655 -3656 -3657 -3658 0
604 -2020 -3654 -3655 -3656 -3657 -3658 0
604 -2272 -3654 -3655 -3656 -3657 -3658 0
-604 616 -3654 -3655 -3656 -3657 -3658 0
616 -2020 -3654 -3655 -3656 -3657 -3658 0
616 -2272 -3654 -3655 -3656 -3657 -3658 0
-604 -2020 -3654 -3655 -3656 -3657 -3658 0
-616 -2020 -3654 -3655 -3656 -3657 -3658 0
-2020 -3654 -3655 -3656 -3657 -3658 0
-2020 -2272 -3654 -3655 -3656 -3657 -3658 0
-604 -2272 -3654 -3655 -3656 -3657 -3658 0
-616 -2272 -3654 -3655 -3656 -3657 -3658 0
-2272 -3654 -3655 -3656 -3657 -3658 0
-605 3659 0
-617 3659 0
2021 3659 0
2273 3659 0
605 617 -2021 -2273 -3659 0
-605 3660 0
617 3660 0
-2021 3660 0
2273 3660 0
605 -617 2021 -2273 -3660 0
-605 3661 0
617 3661 0
2021 3661 0
-2273 3661 0
605 -617 -2021 2273 -3661 0
605 3662 0
-617 3662 0
-2021 3662 0
2273 3662 0
-605 617 2021 -2273 -3662 0
605 3663 0
-617 3663 0
2021 3663 0
-2273 3663 0
-605 617 -2021 2273 -3663 0
605 -617 -3659 -3660 -3661 -3662 -3663 0
605 -2021 -3659 -3660 -3661 -3662 -3663 0
605 -2273 -3659 -3660 -3661 -3662 -3663 0
-605 617 -3659 -3660 -3661 -3662 -3663 0
617 -2021 -3659 -3660 -3661 -3662 -3663 0
617 -2273 -3659 -3660 -3661 -3662 -3663 0
-605 -2021 -3659 -3660 -3661 -3662 -3663 0
-617 -2021 -3659 -3660 -3661 -3662 -3663 0
-2021 -3659 -3660 -3661 -3662 -3663 0
-2021 -2273 -3659 -3660 -3661 -3662 -3663 0
-605 -2273 -3659 -3660 -3661 -3662 -3663 0
-617 -2273 -3659 -3660 -3661 -3662 -3663 0
-2273 -3659 -3660 -3661 -3662 -3663 0
-913 3664 0
-925 3664 0
-2029 3664 0
-2281 3664 0
913 925 2029 2281 -3664 0
3665 -3664 0
-3665 3664 0
-915 3666 0
-927 3666 0
-2031 3666 0
-2283 3666 0
-3665 3666 0
915 927 2031 2283 3665 -3666 0
3667 -3666 0
3666 -3667 0
-915 -3665 0
-927 -3665 0
-2031 -3665 0
-2283 -3665 0
-914 3668 0
-926 3668 0
2030 3668 0
2282 3668 0
914 926 -2030 -2282 -3668 0
-914 3669 0
926 3669 0
-2030 3669 0
2282 3669 0
914 -926 2030 -2282 -3669 0
-914 3670 0
926 3670 0
2030 3670 0
-2282 3670 0
914 -926 -2030 2282 -3670 0
914 3671 0
-926 3671 0
-2030 3671 0
2282 3671 0
-914 926 2030 -2282 -3671 0
914 3672 0
-926 3672 0
2030 3672 0
-2282 3672 0
-914 926 -2030 2282 -3672 0
914 -926 -3668 -3669 -3670 -3671 -3672 0
914 -2030 -3668 -3669 -3670 -3671 -3672 0
914 -2282 -3668 -3669 -3670 -3671 -3672 0
-914 926 -3668 -3669 -3670 -3671 -3672 0
926 -2030 -3668 -3669 -3670 -3671 -3672 0
926 -2282 -3668 -3669 -3670 -3671 -3672 0
-914 -2030 -3668 -3669 -3670 -3671 -3672 0
-926 -2030 -3668 -3669 -3670 -3671 -3672 0
-2030 -3668 -3669 -3670 -3671 -3672 0
-2030 -2282 -3668 -3669 -3670 -3671 -3672 0
-914 -2282 -3668 -3669 -3670 -3671 -3672 0
-926 -2282 -3668 -3669 -3670 -3671 -3672 0
-2282 -3668 -3669 -3670 -3671 -3672 0
-916 3673 0
-928 3673 0
2032 3673 0
2284 3673 0
916 928 -2032 -2284 -3673 0
-916 3674 0
928 3674 0
-2032 3674 0
2284 3674 0
916 -928 2032 -2284 -3674 0
-916 3675 0
928 3675 0
2032 3675 0
-2284 3675 0
916 -928 -2032 2284 -3675 0
916 3676 0
-928 3676 0
-2032 3676 0
2284 3676 0
-916 928 2032 -2284 -3676 0
916 3677 0
-928 3677 0
2032 3677 0
-2284 3677 0
-916 928 -2032 2284 -3677 0
916 -928 -3673 -3674 -3675 -3676 -3677 0
916 -2032 -3673 -3674 -3675 -3676 -3677 0
916 -2284 -3673 -3674 -3675 -3676 -3677 0
-916 928 -3673 -3674 -3675 -3676 -3677 0
928 -2032 -3673 -3674 -3675 -3676 -3677 0
928 -2284 -3673 -3674 -3675 -3676 -3677 0
-916 -2032 -3673 -3674 -3675 -3676 -3677 0
-928 -2032 -3673 -3674 -3675 -3676 -3677 0
-2032 -3673 -3674 -3675 -3676 -3677 0
-2032 -2284 -3673 -3674 -3675 -3676 -3677 0
-916 -2284 -3673 -3674 -3675 -3676 -3677 0
-928 -2284 -3673 -3674 -3675 -3676 -3677 0
-2284 -3673 -3674 -3675 -3676 -3677 0
-917 3678 0
-929 3678 0
2033 3678 0
2285 3678 0
917 929 -2033 -2285 -3678 0
-917 3679 0
929 3679 0
-2033 3679 0
2285 3679 0
917 -929 2033 -2285 -3679 0
-917 3680 0
929 3680 0
2033 3680 0
-2285 3680 0
917 -929 -2033 2285 -3680 0
917 3681 0
-929 3681 0
-2033 3681 0
2285 3681 0
-917 929 2033 -2285 -3681 0
917 3682 0
-929 3682 0
2033 3682 0
-2285 3682 0
-917 929 -2033 2285 -3682 0
917 -929 -3678 -3679 -3680 -3681 -3682 0
917 -2033 -3678 -3679 -3680 -3681 -3682 0
917 -2285 -3678 -3679 -3680 -3681 -3682 0
-917 929 -3678 -3679 -3680 -3681 -3682 0
929 -2033 -3678 -3679 -3680 -3681 -3682 0
929 -2285 -3678 -3679 -3680 -3681 -3682 0
-917 -2033 -3678 -3679 -3680 -3681 -3682 0
-929 -2033 -3678 -3679 -3680 -3681 -3682 0
-2033 -3678 -3679 -3680 -3681 -3682 0
-2033 -2285 -3678 -3679 -3680 -3681 -3682 0
-917 -2285 -3678 -3679 -3680 -3681 -3682 0
-929 -2285 -3678 -3679 -3680 -3681 -3682 0
-2285 -3678 -3679 -3680 -3681 -3682 0
-1225 3683 0
-1237 3683 0
-2041 3683 0
-2293 3683 0
1225 1237 2041 2293 -3683 0
3684 -3683 0
-3684 3683 0
-1227 3685 0
-1239 3685 0
-2043 3685 0
-2295 3685 0
-3684 3685 0
1227 1239 2043 2295 3684 -3685 0
3686 -3685 0
3685 -3686 0
-1227 -3684 0
-1239 -3684 0
-2043 -3684 0
-2295 -3684 0
-1226 3687 0
-1238 3687 0
2042 3687 0
2294 3687 0
1226 1238 -2042 -2294 -3687 0
-1226 3688 0
1238 3688 0
-2042 3688 0
2294 3688 0
1226 -1238 2042 -2294 -3688 0
-1226 3689 0
1238 3689 0
2042 3689 0
-2294 3689 0
1226 -1238 -2042 2294 -3689 0
1226 3690 0
-1238 3690 0
-2042 3690 0
2294 3690 0
-1226 1238 2042 -2294 -3690 0
1226 3691 0
-1238 3691 0
2042 3691 0
-2294 3691 0
-1226 1238 -2042 2294 -3691 0
1226 -1238 -3687 -3688 -3689 -3690 -3691 0
1226 -2042 -3687 -3688 -3689 -3690 -3691 0
1226 -2294 -3687 -3688 -3689 -3690 -3691 0
-1226 1238 -3687 -3688 -3689 -3690 -3691 0
1238 -2042 -3687 -3688 -3689 -3690 -3691 0
1238 -2294 -3687 -3688 -3689 -3690 -3691 0
-1226 -2042 -3687 -3688 -3689 -3690 -3691 0
-1238 -2042 -3687 -3688 -3689 -3690 -3691 0
-2042 -3687 -3688 -3689 -3690 -3691 0
-2042 -2294 -3687 -3688 -3689 -3690 -3691 0
-1226 -2294 -3687 -3688 -3689 -3690 -3691 0
-1238 -2294 -3687 -3688 -3689 -3690 -3691 0
-2294 -3687 -3688 -3689 -3690 -3691 0
-1228 3692 0
-1240 3692 0
2044 3692 0
2296 3692 0
1228 1240 -2044 -2296 -3692 0
-1228 3693 0
1240 3693 0
-2044 3693 0
2296 3693 0
1228 -1240 2044 -2296 -3693 0
-1228 3694 0
1240 3694 0
2044 3694 0
-2296 3694 0
1228 -1240 -2044 2296 -3694 0
1228 3695 0
-1240 3695 0
-2044 3695 0
2296 3695 0
-1228 1240 2044 -2296 -3695 0
1228 3696 0
-1240 3696 0
2044 3696 0
-2296 3696 0
-1228 1240 -2044 2296 -3696 0
1228 -1240 -3692 -3693 -3694 -3695 -3696 0
1228 -2044 -3692 -3693 -3694 -3695 -3696 0
1228 -2296 -3692 -3693 -3694 -3695 -3696 0
-1228 1240 -3692 -3693 -3694 -3695 -3696 0
1240 -2044 -3692 -3693 -3694 -3695 -3696 0
1240 -2296 -3692 -3693 -3694 -3695 -3696 0
-1228 -2044 -3692 -3693 -3694 -3695 -3696 0
-1240 -2044 -3692 -3693 -3694 -3695 -3696 0
-2044 -3692 -3693 -3694 -3695 -3696 0
-2044 -2296 -3692 -3693 -3694 -3695 -3696 0
-1228 -2296 -3692 -3693 -3694 -3695 -3696 0
-1240 -2296 -3692 -3693 -3694 -3695 -3696 0
-2296 -3692 -3693 -3694 -3695 -3696 0
-1229 3697 0
-1241 3697 0
2045 3697 0
2297 3697 0
1229 1241 -2045 -2297 -3697 0
-1229 3698 0
1241 3698 0
-2045 3698 0
2297 3698 0
1229 -1241 2045 -2297 -3698 0
-1229 3699 0
1241 3699 0
2045 3699 0
-2297 3699 0
1229 -1241 -2045 2297 -3699 0
1229 3700 0
-1241 3700 0
-2045 3700 0
2297 3700 0
-1229 1241 2045 -2297 -3700 0
1229 3701 0
-1241 3701 0
2045 3701 0
-2297 3701 0
-1229 1241 -2045 2297 -3701 0
1229 -1241 -3697 -3698 -3699 -3700 -3701 0
1229 -2045 -3697 -3698 -3699 -3700 -3701 0
1229 -2297 -3697 -3698 -3699 -3700 -3701 0
-1229 1241 -3697 -3698 -3699 -3700 -3701 0
1241 -2045 -3697 -3698 -3699 -3700 -3701 0
1241 -2297 -3697 -3698 -3699 -3700 -3701 0
-1229 -2045 -3697 -3698 -3699 -3700 -3701 0
-1241 -2045 -3697 -3698 -3699 -3700 -3701 0
-2045 -3697 -3698 -3699 -3700 -3701 0
-2045 -2297 -3697 -3698 -3699 -3700 -3701 0
-1229 -2297 -3697 -3698 -3699 -3700 -3701 0
-1241 -2297 -3697 -3698 -3699 -3700 -3701 0
-2297 -3697 -3698 -3699 -3700 -3701 0
-613 3702 0
-625 3702 0
613 625 -3702 0
3703 -3702 0
-3703 3702 0
-615 3704 0
-627 3704 0
-3703 3704 0
615 627 3703 -3704 0
3705 -3704 0
3704 -3705 0
-615 -3703 0
-627 -3703 0
614 -626 0
-614 626 0
628 -616 0
616 -628 0
629 -617 0
617 -629 0
-925 3706 0
-937 3706 0
925 937 -3706 0
3707 -3706 0
-3707 3706 0
-927 3708 0
-939 3708 0
-3707 3708 0
927 939 3707 -3708 0
3709 -3708 0
3708 -3709 0
-927 -3707 0
-939 -3707 0
938 -926 0
926 -938 0
940 -928 0
928 -940 0
941 -929 0
929 -941 0
-1237 3710 0
-1249 3710 0
1237 1249 -3710 0
3711 -3710 0
-3711 3710 0
-1239 3712 0
-1251 3712 0
-3711 3712 0
1239 1251 3711 -3712 0
3713 -3712 0
3712 -3713 0
-1239 -3711 0
-1251 -3711 0
1250 -1238 0
1238 -1250 0
1252 -1240 0
1240 -1252 0
1253 -1241 0
1241 -1253 0
-625 3714 0
-637 3714 0
625 637 -3714 0
3715 -3714 0
-3715 3714 0
-627 3716 0
-639 3716 0
-3715 3716 0
627 639 3715 -3716 0
3717 -3716 0
3716 -3717 0
-627 -3715 0
-639 -3715 0
638 -626 0
626 -638 0
640 -628 0
628 -640 0
641 -629 0
629 -641 0
-937 3718 0
-949 3718 0
937 949 -3718 0
3719 -3718 0
-3719 3718 0
-939 3720 0
-951 3720 0
-3719 3720 0
939 951 3719 -3720 0
3721 -3720 0
3720 -3721 0
-939 -3719 0
-951 -3719 0
950 -938 0
938 -950 0
952 -940 0
940 -952 0
953 -941 0
941 -953 0
-1249 3722 0
-1261 3722 0
1249 1261 -3722 0
3723 -3722 0
-3723 3722 0
-1251 3724 0
-1263 3724 0
-3723 3724 0
1251 1263 3723 -3724 0
3725 -3724 0
3724 -3725 0
-1251 -3723 0
-1263 -3723 0
1262 -1250 0
1250 -1262 0
1264 -1252 0
1252 -1264 0
1265 -1253 0
1253 -1265 0
-637 3726 0
-649 3726 0
637 649 -3726 0
3727 -3726 0
-3727 3726 0
-639 3728 0
-651 3728 0
-3727 3728 0
639 651 3727 -3728 0
3729 -3728 0
3728 -3729 0
-639 -3727 0
-651 -3727 0
650 -638 0
638 -650 0
652 -640 0
640 -652 0
653 -641 0
641 -653 0
-949 3730 0
-961 3730 0
949 961 -3730 0
3731 -3730 0
-3731 3730 0
-951 3732 0
-963 3732 0
-3731 3732 0
951 963 3731 -3732 0
3733 -3732 0
3732 -3733 0
-951 -3731 0
-963 -3731 0
962 -950 0
950 -962 0
964 -952 0
952 -964 0
965 -953 0
953 -965 0
-1261 3734 0
-1273 3734 0
1261 1273 -3734 0
3735 -3734 0
-3735 3734 0
-1263 3736 0
-1275 3736 0
-3735 3736 0
1263 1275 3735 -3736 0
3737 -3736 0
3736 -3737 0
-1263 -3735 0
-1275 -3735 0
1274 -1262 0
1262 -1274 0
1276 -1264 0
1264 -1276 0
1277 -1265 0
1265 -1277 0
-649 3738 0
-661 3738 0
-2053 3738 0
-2305 3738 0
649 661 2053 2305 -3738 0
3739 -3738 0
-3739 3738 0
-651 3740 0
-663 3740 0
-2055 3740 0
-2307 3740 0
-3739 3740 0
651 663 2055 2307 3739 -3740 0
3741 -3740 0
3740 -3741 0
-651 -3739 0
-663 -3739 0
-2055 -3739 0
-2307 -3739 0
-650 3742 0
-662 3742 0
2054 3742 0
2306 3742 0
650 662 -2054 -2306 -3742 0
-650 3743 0
662 3743 0
-2054 3743 0
2306 3743 0
650 -662 2054 -2306 -3743 0
-650 3744 0
662 3744 0
2054 3744 0
-2306 3744 0
650 -662 -2054 2306 -3744 0
650 3745 0
-662 3745 0
-2054 3745 0
2306 3745 0
-650 662 2054 -2306 -3745 0
650 3746 0
-662 3746 0
2054 3746 0
-2306 3746 0
-650 662 -2054 2306 -3746 0
650 -662 -3742 -3743 -3744 -3745 -3746 0
650 -2054 -3742 -3743 -3744 -3745 -3746 0
650 -2306 -3742 -3743 -3744 -3745 -3746 0
-650 662 -3742 -3743 -3744 -3745 -3746 0
662 -2054 -3742 -3743 -3744 -3745 -3746 0
662 -2306 -3742 -3743 -3744 -3745 -3746 0
-650 -2054 -3742 -3743 -3744 -3745 -3746 0
-662 -2054 -3742 -3743 -3744 -3745 -3746 0
-2054 -3742 -3743 -3744 -3745 -3746 0
-2054 -2306 -3742 -3743 -3744 -3745 -3746 0
-650 -2306 -3742 -3743 -3744 -3745 -3746 0
-662 -2306 -3742 -3743 -3744 -3745 -3746 0
-2306 -3742 -3743 -3744 -3745 -3746 0
-652 3747 0
-664 3747 0
2056 3747 0
2308 3747 0
652 664 -2056 -2308 -3747 0
-652 3748 0
664 3748 0
-2056 3748 0
2308 3748 0
652 -664 2056 -2308 -3748 0
-652 3749 0
664 3749 0
2056 3749 0
-2308 3749 0
652 -664 -2056 2308 -3749 0
652 3750 0
-664 3750 0
-2056 3750 0
2308 3750 0
-652 664 2056 -2308 -3750 0
652 3751 0
-664 3751 0
2056 3751 0
-2308 3751 0
-652 664 -2056 2308 -3751 0
652 -664 -3747 -3748 -3749 -3750 -3751 0
652 -2056 -3747 -3748 -3749 -3750 -3751 0
652 -2308 -3747 -3748 -3749 -3750 -3751 0
-652 664 -3747 -3748 -3749 -3750 -3751 0
664 -2056 -3747 -3748 -3749 -3750 -3751 0
664 -2308 -3747 -3748 -3749 -3750 -3751 0
-652 -2056 -3747 -3748 -3749 -3750 -3751 0
-664 -2056 -3747 -3748 -3749 -3750 -3751 0
-2056 -3747 -3748 -3749 -3750 -3751 0
-2056 -2308 -3747 -3748 -3749 -3750 -3751 0
-652 -2308 -3747 -3748 -3749 -3750 -3751 0
-664 -2308 -3747 -3748 -3749 -3750 -3751 0
-2308 -3747 -3748 -3749 -3750 -3751 0
-653 3752 0
-665 3752 0
2057 3752 0
2309 3752 0
653 665 -2057 -2309 -3752 0
-653 3753 0
665 3753 0
-2057 3753 0
2309 3753 0
653 -665 2057 -2309 -3753 0
-653 3754 0
665 3754 0
2057 3754 0
-2309 3754 0
653 -665 -2057 2309 -3754 0
653 3755 0
-665 3755 0
-2057 3755 0
2309 3755 0
-653 665 2057 -2309 -3755 0
653 3756 0
-665 3756 0
2057 3756 0
-2309 3756 0
-653 665 -2057 2309 -3756 0
653 -665 -3752 -3753 -3754 -3755 -3756 0
653 -2057 -3752 -3753 -3754 -3755 -3756 0
653 -2309 -3752 -3753 -3754 -3755 -3756 0
-653 665 -3752 -3753 -3754 -3755 -3756 0
665 -2057 -3752 -3753 -3754 -3755 -3756 0
665 -2309 -3752 -3753 -3754 -3755 -3756 0
-653 -2057 -3752 -3753 -3754 -3755 -3756 0
-665 -2057 -3752 -3753 -3754 -3755 -3756 0
-2057 -3752 -3753 -3754 -3755 -3756 0
-2057 -2309 -3752 -3753 -3754 -3755 -3756 0
-653 -2309 -3752 -3753 -3754 -3755 -3756 0
-665 -2309 -3752 -3753 -3754 -3755 -3756 0
-2309 -3752 -3753 -3754 -3755 -3756 0
-961 3757 0
-973 3757 0
-2065 3757 0
-2317 3757 0
961 973 2065 2317 -3757 0
3758 -3757 0
-3758 3757 0
-963 3759 0
-975 3759 0
-2067 3759 0
-2319 3759 0
-3758 3759 0
963 975 2067 2319 3758 -3759 0
3760 -3759 0
3759 -3760 0
-963 -3758 0
-975 -3758 0
-2067 -3758 0
-2319 -3758 0
-962 3761 0
-974 3761 0
2066 3761 0
2318 3761 0
962 974 -2066 -2318 -3761 0
-962 3762 0
974 3762 0
-2066 3762 0
2318 3762 0
962 -974 2066 -2318 -3762 0
-962 3763 0
974 3763 0
2066 3763 0
-2318 3763 0
962 -974 -2066 2318 -3763 0
962 3764 0
-974 3764 0
-2066 3764 0
2318 3764 0
-962 974 2066 -2318 -3764 0
962 3765 0
-974 3765 0
2066 3765 0
-2318 3765 0
-962 974 -2066 2318 -3765 0
962 -974 -3761 -3762 -3763 -3764 -3765 0
962 -2066 -3761 -3762 -3763 -3764 -3765 0
962 -2318 -3761 -3762 -3763 -3764 -3765 0
-962 974 -3761 -3762 -3763 -3764 -3765 0
974 -2066 -3761 -3762 -3763 -3764 -3765 0
974 -2318 -3761 -3762 -3763 -3764 -3765 0
-962 -2066 -3761 -3762 -3763 -3764 -3765 0
-974 -2066 -3761 -3762 -3763 -3764 -3765 0
-2066 -3761 -3762 -3763 -3764 -3765 0
-2066 -2318 -3761 -3762 -3763 -3764 -3765 0
-962 -2318 -3761 -3762 -3763 -3764 -3765 0
-974 -2318 -3761 -3762 -3763 -3764 -3765 0
-2318 -3761 -3762 -3763 -3764 -3765 0
-964 3766 0
-976 3766 0
2068 3766 0
2320 3766 0
964 976 -2068 -2320 -3766 0
-964 3767 0
976 3767 0
-2068 3767 0
2320 3767 0
964 -976 2068 -2320 -3767 0
-964 3768 0
976 3768 0
2068 3768 0
-2320 3768 0
964 -976 -2068 2320 -3768 0
964 3769 0
-976 3769 0
-2068 3769 0
2320 3769 0
-964 976 2068 -2320 -3769 0
964 3770 0
-976 3770 0
2068 3770 0
-2320 3770 0
-964 976 -2068 2320 -3770 0
964 -976 -3766 -3767 -3768 -3769 -3770 0
964 -2068 -3766 -3767 -3768 -3769 -3770 0
964 -2320 -3766 -3767 -3768 -3769 -3770 0
-964 976 -3766 -3767 -3768 -3769 -3770 0
976 -2068 -3766 -3767 -3768 -3769 -3770 0
976 -2320 -3766 -3767 -3768 -3769 -3770 0
-964 -2068 -3766 -3767 -3768 -3769 -3770 0
-976 -2068 -3766 -3767 -3768 -3769 -3770 0
-2068 -3766 -3767 -3768 -3769 -3770 0
-2068 -2320 -3766 -3767 -3768 -3769 -3770 0
-964 -2320 -3766 -3767 -3768 -3769 -3770 0
-976 -2320 -3766 -3767 -3768 -3769 -3770 0
-2320 -3766 -3767 -3768 -3769 -3770 0
-965 3771 0
-977 3771 0
2069 3771 0
2321 3771 0
965 977 -2069 -2321 -3771 0
-965 3772 0
977 3772 0
-2069 3772 0
2321 3772 0
965 -977 2069 -2321 -3772 0
-965 3773 0
977 3773 0
2069 3773 0
-2321 3773 0
965 -977 -2069 2321 -3773 0
965 3774 0
-977 3774 0
-2069 3774 0
2321 3774 0
-965 977 2069 -2321 -3774 0
965 3775 0
-977 3775 0
2069 3775 0
-2321 3775 0
-965 977 -2069 2321 -3775 0
965 -977 -3771 -3772 -3773 -3774 -3775 0
965 -2069 -3771 -3772 -3773 -3774 -3775 0
965 -2321 -3771 -3772 -3773 -3774 -3775 0
-965 977 -3771 -3772 -3773 -3774 -3775 0
977 -2069 -3771 -3772 -3773 -3774 -3775 0
977 -2321 -3771 -3772 -3773 -3774 -3775 0
-965 -2069 -3771 -3772 -3773 -3774 -3775 0
-977 -2069 -3771 -3772 -3773 -3774 -3775 0
-2069 -3771 -3772 -3773 -3774 -3775 0
-2069 -2321 -3771 -3772 -3773 -3774 -3775 0
-965 -2321 -3771 -3772 -3773 -3774 -3775 0
-977 -2321 -3771 -3772 -3773 -3774 -3775 0
-2321 -3771 -3772 -3773 -3774 -3775 0
-1273 3776 0
-1285 3776 0
-2077 3776 0
-2329 3776 0
1273 1285 2077 2329 -3776 0
3777 -3776 0
-3777 3776 0
-1275 3778 0
-1287 3778 0
-2079 3778 0
-2331 3778 0
-3777 3778 0
1275 1287 2079 2331 3777 -3778 0
3779 -3778 0
3778 -3779 0
-1275 -3777 0
-1287 -3777 0
-2079 -3777 0
-2331 -3777 0
-1274 3780 0
-1286 3780 0
2078 3780 0
2330 3780 0
1274 1286 -2078 -2330 -3780 0
-1274 3781 0
1286 3781 0
-2078 3781 0
2330 3781 0
1274 -1286 2078 -2330 -3781 0
-1274 3782 0
1286 3782 0
2078 3782 0
-2330 3782 0
1274 -1286 -2078 2330 -3782 0
1274 3783 0
-1286 3783 0
-2078 3783 0
2330 3783 0
-1274 1286 2078 -2330 -3783 0
1274 3784 0
-1286 3784 0
2078 3784 0
-2330 3784 0
-1274 1286 -2078 2330 -3784 0
1274 -1286 -3780 -3781 -3782 -3783 -3784 0
1274 -2078 -3780 -3781 -3782 -3783 -3784 0
1274 -2330 -3780 -3781 -3782 -3783 -3784 0
-1274 1286 -3780 -3781 -3782 -3783 -3784 0
1286 -2078 -3780 -3781 -3782 -3783 -3784 0
1286 -2330 -3780 -3781 -3782 -3783 -3784 0
-1274 -2078 -3780 -3781 -3782 -3783 -3784 0
-1286 -2078 -3780 -3781 -3782 -3783 -3784 0
-2078 -3780 -3781 -3782 -3783 -3784 0
-2078 -2330 -3780 -3781 -3782 -3783 -3784 0
-1274 -2330 -3780 -3781 -3782 -3783 -3784 0
-1286 -2330 -3780 -3781 -3782 -3783 -3784 0
-2330 -3780 -3781 -3782 -3783 -3784 0
-1276 3785 0
-1288 3785 0
2080 3785 0
2332 3785 0
1276 1288 -2080 -2332 -3785 0
-1276 3786 0
1288 3786 0
-2080 3786 0
2332 3786 0
1276 -1288 2080 -2332 -3786 0
-1276 3787 0
1288 3787 0
2080 3787 0
-2332 3787 0
1276 -1288 -2080 2332 -3787 0
1276 3788 0
-1288 3788 0
-2080 3788 0
2332 3788 0
-1276 1288 2080 -2332 -3788 0
1276 3789 0
-1288 3789 0
2080 3789 0
-2332 3789 0
-1276 1288 -2080 2332 -3789 0
1276 -1288 -3785 -3786 -3787 -3788 -3789 0
1276 -2080 -3785 -3786 -3787 -3788 -3789 0
1276 -2332 -3785 -3786 -3787 -3788 -3789 0
-1276 1288 -3785 -3786 -3787 -3788 -3789 0
1288 -2080 -3785 -3786 -3787 -3788 -3789 0
1288 -2332 -3785 -3786 -3787 -3788 -3789 0
-1276 -2080 -3785 -3786 -3787 -3788 -3789 0
-1288 -2080 -3785 -3786 -3787 -3788 -3789 0
-2080 -3785 -3786 -3787 -3788 -3789 0
-2080 -2332 -3785 -3786 -3787 -3788 -3789 0
-1276 -2332 -3785 -3786 -3787 -3788 -3789 0
-1288 -2332 -3785 -3786 -3787 -3788 -3789 0
-2332 -3785 -3786 -3787 -3788 -3789 0
-1277 3790 0
-1289 3790 0
2081 3790 0
2333 3790 0
1277 1289 -2081 -2333 -3790 0
-1277 3791 0
1289 3791 0
-2081 3791 0
2333 3791 0
1277 -1289 2081 -2333 -3791 0
-1277 3792 0
1289 3792 0
2081 3792 0
-2333 3792 0
1277 -1289 -2081 2333 -3792 0
1277 3793 0
-1289 3793 0
-2081 3793 0
2333 3793 0
-1277 1289 2081 -2333 -3793 0
1277 3794 0
-1289 3794 0
2081 3794 0
-2333 3794 0
-1277 1289 -2081 2333 -3794 0
1277 -1289 -3790 -3791 -3792 -3793 -3794 0
1277 -2081 -3790 -3791 -3792 -3793 -3794 0
1277 -2333 -3790 -3791 -3792 -3793 -3794 0
-1277 1289 -3790 -3791 -3792 -3793 -3794 0
1289 -2081 -3790 -3791 -3792 -3793 -3794 0
1289 -2333 -3790 -3791 -3792 -3793 -3794 0
-1277 -2081 -3790 -3791 -3792 -3793 -3794 0
-1289 -2081 -3790 -3791 -3792 -3793 -3794 0
-2081 -3790 -3791 -3792 -3793 -3794 0
-2081 -2333 -3790 -3791 -3792 -3793 -3794 0
-1277 -2333 -3790 -3791 -3792 -3793 -3794 0
-1289 -2333 -3790 -3791 -3792 -3793 -3794 0
-2333 -3790 -3791 -3792 -3793 -3794 0
-661 3795 0
-673 3795 0
661 673 -3795 0
3796 -3795 0
-3796 3795 0
-663 3797 0
-675 3797 0
-3796 3797 0
663 675 3796 -3797 0
3798 -3797 0
3797 -3798 0
-663 -3796 0
-675 -3796 0
662 -674 0
-662 674 0
676 -664 0
664 -676 0
677 -665 0
665 -677 0
-973 3799 0
-985 3799 0
973 985 -3799 0
3800 -3799 0
-3800 3799 0
-975 3801 0
-987 3801 0
-3800 3801 0
975 987 3800 -3801 0
3802 -3801 0
3801 -3802 0
-975 -3800 0
-987 -3800 0
986 -974 0
974 -986 0
988 -976 0
976 -988 0
989 -977 0
977 -989 0
-1285 3803 0
-1297 3803 0
1285 1297 -3803 0
3804 -3803 0
-3804 3803 0
-1287 3805 0
-1299 3805 0
-3804 3805 0
1287 1299 3804 -3805 0
3806 -3805 0
3805 -3806 0
-1287 -3804 0
-1299 -3804 0
1298 -1286 0
1286 -1298 0
1300 -1288 0
1288 -1300 0
1301 -1289 0
1289 -1301 0
-673 3807 0
-685 3807 0
673 685 -3807 0
3808 -3807 0
-3808 3807 0
-675 3809 0
-687 3809 0
-3808 3809 0
675 687 3808 -3809 0
3810 -3809 0
3809 -3810 0
-675 -3808 0
-687 -3808 0
686 -674 0
674 -686 0
688 -676 0
676 -688 0
689 -677 0
677 -689 0
-985 3811 0
-997 3811 0
985 997 -3811 0
3812 -3811 0
-3812 3811 0
-987 3813 0
-999 3813 0
-3812 3813 0
987 999 3812 -3813 0
3814 -3813 0
3813 -3814 0
-987 -3812 0
-999 -3812 0
998 -986 0
986 -998 0
1000 -988 0
988 -1000 0
1001 -989 0
989 -1001 0
-1297 3815 0
-1309 3815 0
1297 1309 -3815 0
3816 -3815 0
-3816 3815 0
-1299 3817 0
-1311 3817 0
-3816 3817 0
1299 1311 3816 -3817 0
3818 -3817 0
3817 -3818 0
-1299 -3816 0
-1311 -3816 0
1310 -1298 0
1298 -1310 0
1312 -1300 0
1300 -1312 0
1313 -1301 0
1301 -1313 0
-685 3819 0
-697 3819 0
685 697 -3819 0
3820 -3819 0
-3820 3819 0
-687 3821 0
-699 3821 0
-3820 3821 0
687 699 3820 -3821 0
3822 -3821 0
3821 -3822 0
-687 -3820 0
-699 -3820 0
698 -686 0
686 -698 0
700 -688 0
688 -700 0
701 -689 0
689 -701 0
-997 3823 0
-1009 3823 0
997 1009 -3823 0
3824 -3823 0
-3824 3823 0
-999 3825 0
-1011 3825 0
-3824 3825 0
999 1011 3824 -3825 0
3826 -3825 0
3825 -3826 0
-999 -3824 0
-1011 -3824 0
1010 -998 0
998 -1010 0
1012 -1000 0
1000 -1012 0
1013 -1001 0
1001 -1013 0
-1309 3827 0
-1321 3827 0
1309 1321 -3827 0
3828 -3827 0
-3828 3827 0
-1311 3829 0
-1323 3829 0
-3828 3829 0
1311 1323 3828 -3829 0
3830 -3829 0
3829 -3830 0
-1311 -3828 0
-1323 -3828 0
1322 -1310 0
1310 -1322 0
1324 -1312 0
1312 -1324 0
1325 -1313 0
1313 -1325 0
-697 3831 0
-709 3831 0
-2089 3831 0
-2341 3831 0
697 709 2089 2341 -3831 0
3832 -3831 0
-3832 3831 0
-699 3833 0
-711 3833 0
-2091 3833 0
-2343 3833 0
-3832 3833 0
699 711 2091 2343 3832 -3833 0
3834 -3833 0
3833 -3834 0
-699 -3832 0
-711 -3832 0
-2091 -3832 0
-2343 -3832 0
-698 3835 0
-710 3835 0
2090 3835 0
2342 3835 0
698 710 -2090 -2342 -3835 0
-698 3836 0
710 3836 0
-2090 3836 0
2342 3836 0
698 -710 2090 -2342 -3836 0
-698 3837 0
710 3837 0
2090 3837 0
-2342 3837 0
698 -710 -2090 2342 -3837 0
698 3838 0
-710 3838 0
-2090 3838 0
2342 3838 0
-698 710 2090 -2342 -3838 0
698 3839 0
-710 3839 0
2090 3839 0
-2342 3839 0
-698 710 -2090 2342 -3839 0
698 -710 -3835 -3836 -3837 -3838 -3839 0
698 -2090 -3835 -3836 -3837 -3838 -3839 0
698 -2342 -3835 -3836 -3837 -3838 -3839 0
-698 710 -3835 -3836 -3837 -3838 -3839 0
710 -2090 -3835 -3836 -3837 -3838 -3839 0
710 -2342 -3835 -3836 -3837 -3838 -3839 0
-698 -2090 -3835 -3836 -3837 -3838 -3839 0
-710 -2090 -3835 -3836 -3837 -3838 -3839 0
-2090 -3835 -3836 -3837 -3838 -3839 0
-2090 -2342 -3835 -3836 -3837 -3838 -3839 0
-698 -2342 -3835 -3836 -3837 -3838 -3839 0
-710 -2342 -3835 -3836 -3837 -3838 -3839 0
-2342 -3835 -3836 -3837 -3838 -3839 0
-700 3840 0
-712 3840 0
2092 3840 0
2344 3840 0
700 712 -2092 -2344 -3840 0
-700 3841 0
712 3841 0
-2092 3841 0
2344 3841 0
700 -712 2092 -2344 -3841 0
-700 3842 0
712 3842 0
2092 3842 0
-2344 3842 0
700 -712 -2092 2344 -3842 0
700 3843 0
-712 3843 0
-2092 3843 0
2344 3843 0
-700 712 2092 -2344 -3843 0
700 3844 0
-712 3844 0
2092 3844 0
-2344 3844 0
-700 712 -2092 2344 -3844 0
700 -712 -3840 -3841 -3842 -3843 -3844 0
700 -2092 -3840 -3841 -3842 -3843 -3844 0
700 -2344 -3840 -3841 -3842 -3843 -3844 0
-700 712 -3840 -3841 -3842 -3843 -3844 0
712 -2092 -3840 -3841 -3842 -3843 -3844 0
712 -2344 -3840 -3841 -3842 -3843 -3844 0
-700 -2092 -3840 -3841 -3842 -3843 -3844 0
-712 -2092 -3840 -3841 -3842 -3843 -3844 0
-2092 -3840 -3841 -3842 -3843 -3844 0
-2092 -2344 -3840 -3841 -3842 -3843 -3844 0
-700 -2344 -3840 -3841 -3842 -3843 -3844 0
-712 -2344 -3840 -3841 -3842 -3843 -3844 0
-2344 -3840 -3841 -3842 -3843 -3844 0
-701 3845 0
-713 3845 0
2093 3845 0
2345 3845 0
701 713 -2093 -2345 -3845 0
-701 3846 0
713 3846 0
-2093 3846 0
2345 3846 0
701 -713 2093 -2345 -3846 0
-701 3847 0
713 3847 0
2093 3847 0
-2345 3847 0
701 -713 -2093 2345 -3847 0
701 3848 0
-713 3848 0
-2093 3848 0
2345 3848 0
-701 713 2093 -2345 -3848 0
701 3849 0
-713 3849 0
2093 3849 0
-2345 3849 0
-701 713 -2093 2345 -3849 0
701 -713 -3845 -3846 -3847 -3848 -3849 0
701 -2093 -3845 -3846 -3847 -3848 -3849 0
701 -2345 -3845 -3846 -3847 -3848 -3849 0
-701 713 -3845 -3846 -3847 -3848 -3849 0
713 -2093 -3845 -3846 -3847 -3848 -3849 0
713 -2345 -3845 -3846 -3847 -3848 -3849 0
-701 -2093 -3845 -3846 -3847 -3848 -3849 0
-713 -2093 -3845 -3846 -3847 -3848 -3849 0
-2093 -3845 -3846 -3847 -3848 -3849 0
-2093 -2345 -3845 -3846 -3847 -3848 -3849 0
-701 -2345 -3845 -3846 -3847 -3848 -3849 0
-713 -2345 -3845 -3846 -3847 -3848 -3849 0
-2345 -3845 -3846 -3847 -3848 -3849 0
-1009 3850 0
-1021 3850 0
-2101 3850 0
-2353 3850 0
1009 1021 2101 2353 -3850 0
3851 -3850 0
-3851 3850 0
-1011 3852 0
-1023 3852 0
-2103 3852 0
-2355 3852 0
-3851 3852 0
1011 1023 2103 2355 3851 -3852 0
3853 -3852 0
3852 -3853 0
-1011 -3851 0
-1023 -3851 0
-2103 -3851 0
-2355 -3851 0
-1010 3854 0
-1022 3854 0
2102 3854 0
2354 3854 0
1010 1022 -2102 -2354 -3854 0
-1010 3855 0
1022 3855 0
-2102 3855 0
2354 3855 0
1010 -1022 2102 -2354 -3855 0
-1010 3856 0
1022 3856 0
2102 3856 0
-2354 3856 0
1010 -1022 -2102 2354 -3856 0
1010 3857 0
-1022 3857 0
-2102 3857 0
2354 3857 0
-1010 1022 2102 -2354 -3857 0
1010 3858 0
-1022 3858 0
2102 3858 0
-2354 3858 0
-1010 1022 -2102 2354 -3858 0
1010 -1022 -3854 -3855 -3856 -3857 -3858 0
1010 -2102 -3854 -3855 -3856 -3857 -3858 0
1010 -2354 -3854 -3855 -3856 -3857 -3858 0
-1010 1022 -3854 -3855 -3856 -3857 -3858 0
1022 -2102 -3854 -3855 -3856 -3857 -3858 0
1022 -2354 -3854 -3855 -3856 -3857 -3858 0
-1010 -2102 -3854 -3855 -3856 -3857 -3858 0
-1022 -2102 -3854 -3855 -3856 -3857 -3858 0
-2102 -3854 -3855 -3856 -3857 -3858 0
-2102 -2354 -3854 -3855 -3856 -3857 -3858 0
-1010 -2354 -3854 -3855 -3856 -3857 -3858 0
-1022 -2354 -3854 -3855 -3856 -3857 -3858 0
-2354 -3854 -3855 -3856 -3857 -3858 0
-1012 3859 0
-1024 3859 0
2104 3859 0
2356 3859 0
1012 1024 -2104 -2356 -3859 0
-1012 3860 0
1024 3860 0
-2104 3860 0
2356 3860 0
1012 -1024 2104 -2356 -3860 0
-1012 3861 0
1024 3861 0
2104 3861 0
-2356 3861 0
1012 -1024 -2104 2356 -3861 0
1012 3862 0
-1024 3862 0
-2104 3862 0
2356 3862 0
-1012 1024 2104 -2356 -3862 0
1012 3863 0
-1024 3863 0
2104 3863 0
-2356 3863 0
-1012 1024 -2104 2356 -3863 0
1012 -1024 -3859 -3860 -3861 -3862 -3863 0
1012 -2104 -3859 -3860 -3861 -3862 -3863 0
1012 -2356 -3859 -3860 -3861 -3862 -3863 0
-1012 1024 -3859 -3860 -3861 -3862 -3863 0
1024 -2104 -3859 -3860 -3861 -3862 -3863 0
1024 -2356 -3859 -3860 -3861 -3862 -3863 0
-1012 -2104 -3859 -3860 -3861 -3862 -3863 0
-1024 -2104 -3859 -3860 -3861 -3862 -3863 0
-2104 -3859 -3860 -3861 -3862 -3863 0
-2104 -2356 -3859 -3860 -3861 -3862 -3863 0
-1012 -2356 -3859 -3860 -3861 -3862 -3863 0
-1024 -2356 -3859 -3860 -3861 -3862 -3863 0
-2356 -3859 -3860 -3861 -3862 -3863 0
-1013 3864 0
-1025 3864 0
2105 3864 0
2357 3864 0
1013 1025 -2105 -2357 -3864 0
-1013 3865 0
1025 3865 0
-2105 3865 0
2357 3865 0
1013 -1025 2105 -2357 -3865 0
-1013 3866 0
1025 3866 0
2105 3866 0
-2357 3866 0
1013 -1025 -2105 2357 -3866 0
1013 3867 0
-1025 3867 0
-2105 3867 0
2357 3867 0
-1013 1025 2105 -2357 -3867 0
1013 3868 0
-1025 3868 0
2105 3868 0
-2357 3868 0
-1013 1025 -2105 2357 -3868 0
1013 -1025 -3864 -3865 -3866 -3867 -3868 0
1013 -2105 -3864 -3865 -3866 -3867 -3868 0
1013 -2357 -3864 -3865 -3866 -3867 -3868 0
-1013 1025 -3864 -3865 -3866 -3867 -3868 0
1025 -2105 -3864 -3865 -3866 -3867 -3868 0
1025 -2357 -3864 -3865 -3866 -3867 -3868 0
-1013 -2105 -3864 -3865 -3866 -3867 -3868 0
-1025 -2105 -3864 -3865 -3866 -3867 -3868 0
-2105 -3864 -3865 -3866 -3867 -3868 0
-2105 -2357 -3864 -3865 -3866 -3867 -3868 0
-1013 -2357 -3864 -3865 -3866 -3867 -3868 0
-1025 -2357 -3864 -3865 -3866 -3867 -3868 0
-2357 -3864 -3865 -3866 -3867 -3868 0
-1321 3869 0
-1333 3869 0
-2113 3869 0
-2365 3869 0
1321 1333 2113 2365 -3869 0
3870 -3869 0
-3870 3869 0
-1323 3871 0
-1335 3871 0
-2115 3871 0
-2367 3871 0
-3870 3871 0
1323 1335 2115 2367 3870 -3871 0
3872 -3871 0
3871 -3872 0
-1323 -3870 0
-1335 -3870 0
-2115 -3870 0
-2367 -3870 0
-1322 3873 0
-1334 3873 0
2114 3873 0
2366 3873 0
1322 1334 -2114 -2366 -3873 0
-1322 3874 0
1334 3874 0
-2114 3874 0
2366 3874 0
1322 -1334 2114 -2366 -3874 0
-1322 3875 0
1334 3875 0
2114 3875 0
-2366 3875 0
1322 -1334 -2114 2366 -3875 0
1322 3876 0
-1334 3876 0
-2114 3876 0
2366 3876 0
-1322 1334 2114 -2366 -3876 0
1322 3877 0
-1334 3877 0
2114 3877 0
-2366 3877 0
-1322 1334 -2114 2366 -3877 0
1322 -1334 -3873 -3874 -3875 -3876 -3877 0
1322 -2114 -3873 -3874 -3875 -3876 -3877 0
1322 -2366 -3873 -3874 -3875 -3876 -3877 0
-1322 1334 -3873 -3874 -3875 -3876 -3877 0
1334 -2114 -3873 -3874 -3875 -3876 -3877 0
1334 -2366 -3873 -3874 -3875 -3876 -3877 0
-1322 -2114 -3873 -3874 -3875 -3876 -3877 0
-1334 -2114 -3873 -3874 -3875 -3876 -3877 0
-2114 -3873 -3874 -3875 -3876 -3877 0
-2114 -2366 -3873 -3874 -3875 -3876 -3877 0
-1322 -2366 -3873 -3874 -3875 -3876 -3877 0
-1334 -2366 -3873 -3874 -3875 -3876 -3877 0
-2366 -3873 -3874 -3875 -3876 -3877 0
-1324 3878 0
-1336 3878 0
2116 3878 0
2368 3878 0
1324 1336 -2116 -2368 -3878 0
-1324 3879 0
1336 3879 0
-2116 3879 0
2368 3879 0
1324 -1336 2116 -2368 -3879 0
-1324 3880 0
1336 3880 0
2116 3880 0
-2368 3880 0
1324 -1336 -2116 2368 -3880 0
1324 3881 0
-1336 3881 0
-2116 3881 0
2368 3881 0
-1324 1336 2116 -2368 -3881 0
1324 3882 0
-1336 3882 0
2116 3882 0
-2368 3882 0
-1324 1336 -2116 2368 -3882 0
1324 -1336 -3878 -3879 -3880 -3881 -3882 0
1324 -2116 -3878 -3879 -3880 -3881 -3882 0
1324 -2368 -3878 -3879 -3880 -3881 -3882 0
-1324 1336 -3878 -3879 -3880 -3881 -3882 0
1336 -2116 -3878 -3879 -3880 -3881 -3882 0
1336 -2368 -3878 -3879 -3880 -3881 -3882 0
-1324 -2116 -3878 -3879 -3880 -3881 -3882 0
-1336 -2116 -3878 -3879 -3880 -3881 -3882 0
-2116 -3878 -3879 -3880 -3881 -3882 0
-2116 -2368 -3878 -3879 -3880 -3881 -3882 0
-1324 -2368 -3878 -3879 -3880 -3881 -3882 0
-1336 -2368 -3878 -3879 -3880 -3881 -3882 0
-2368 -3878 -3879 -3880 -3881 -3882 0
-1325 3883 0
-1337 3883 0
2117 3883 0
2369 3883 0
1325 1337 -2117 -2369 -3883 0
-1325 3884 0
1337 3884 0
-2117 3884 0
2369 3884 0
1325 -1337 2117 -2369 -3884 0
-1325 3885 0
1337 3885 0
2117 3885 0
-2369 3885 0
1325 -1337 -2117 2369 -3885 0
1325 3886 0
-1337 3886 0
-2117 3886 0
2369 3886 0
-1325 1337 2117 -2369 -3886 0
1325 3887 0
-1337 3887 0
2117 3887 0
-2369 3887 0
-1325 1337 -2117 2369 -3887 0
1325 -1337 -3883 -3884 -3885 -3886 -3887 0
1325 -2117 -3883 -3884 -3885 -3886 -3887 0
1325 -2369 -3883 -3884 -3885 -3886 -3887 0
-1325 1337 -3883 -3884 -3885 -3886 -3887 0
1337 -2117 -3883 -3884 -3885 -3886 -3887 0
1337 -2369 -3883 -3884 -3885 -3886 -3887 0
-1325 -2117 -3883 -3884 -3885 -3886 -3887 0
-1337 -2117 -3883 -3884 -3885 -3886 -3887 0
-2117 -3883 -3884 -3885 -3886 -3887 0
-2117 -2369 -3883 -3884 -3885 -3886 -3887 0
-1325 -2369 -3883 -3884 -3885 -3886 -3887 0
-1337 -2369 -3883 -3884 -3885 -3886 -3887 0
-2369 -3883 -3884 -3885 -3886 -3887 0
-709 3888 0
-721 3888 0
709 721 -3888 0
3889 -3888 0
-3889 3888 0
-711 3890 0
-723 3890 0
-3889 3890 0
711 723 3889 -3890 0
3891 -3890 0
3890 -3891 0
-711 -3889 0
-723 -3889 0
710 -722 0
-710 722 0
724 -712 0
712 -724 0
725 -713 0
713 -725 0
-1021 3892 0
-1033 3892 0
1021 1033 -3892 0
3893 -3892 0
-3893 3892 0
-1023 3894 0
-1035 3894 0
-3893 3894 0
1023 1035 3893 -3894 0
3895 -3894 0
3894 -3895 0
-1023 -3893 0
-1035 -3893 0
1034 -1022 0
1022 -1034 0
1036 -1024 0
1024 -1036 0
1037 -1025 0
1025 -1037 0
-1333 3896 0
-1345 3896 0
1333 1345 -3896 0
3897 -3896 0
-3897 3896 0
-1335 3898 0
-1347 3898 0
-3897 3898 0
1335 1347 3897 -3898 0
3899 -3898 0
3898 -3899 0
-1335 -3897 0
-1347 -3897 0
1346 -1334 0
1334 -1346 0
1348 -1336 0
1336 -1348 0
1349 -1337 0
1337 -1349 0
-721 3900 0
-733 3900 0
721 733 -3900 0
3901 -3900 0
-3901 3900 0
-723 3902 0
-735 3902 0
-3901 3902 0
723 735 3901 -3902 0
3903 -3902 0
3902 -3903 0
-723 -3901 0
-735 -3901 0
734 -722 0
722 -734 0
736 -724 0
724 -736 0
737 -725 0
725 -737 0
-1033 3904 0
-1045 3904 0
1033 1045 -3904 0
3905 -3904 0
-3905 3904 0
-1035 3906 0
-1047 3906 0
-3905 3906 0
1035 1047 3905 -3906 0
3907 -3906 0
3906 -3907 0
-1035 -3905 0
-1047 -3905 0
1046 -1034 0
1034 -1046 0
1048 -1036 0
1036 -1048 0
1049 -1037 0
1037 -1049 0
-1345 3908 0
-1357 3908 0
1345 1357 -3908 0
3909 -3908 0
-3909 3908 0
-1347 3910 0
-1359 3910 0
-3909 3910 0
1347 1359 3909 -3910 0
3911 -3910 0
3910 -3911 0
-1347 -3909 0
-1359 -3909 0
1358 -1346 0
1346 -1358 0
1360 -1348 0
1348 -1360 0
1361 -1349 0
1349 -1361 0
-733 3912 0
-745 3912 0
733 745 -3912 0
3913 -3912 0
-3913 3912 0
-735 3914 0
-747 3914 0
-3913 3914 0
735 747 3913 -3914 0
3915 -3914 0
3914 -3915 0
-735 -3913 0
-747 -3913 0
746 -734 0
734 -746 0
748 -736 0
736 -748 0
749 -737 0
737 -749 0
-1045 3916 0
-1057 3916 0
1045 1057 -3916 0
3917 -3916 0
-3917 3916 0
-1047 3918 0
-1059 3918 0
-3917 3918 0
1047 1059 3917 -3918 0
3919 -3918 0
3918 -3919 0
-1047 -3917 0
-1059 -3917 0
1058 -1046 0
1046 -1058 0
1060 -1048 0
1048 -1060 0
1061 -1049 0
1049 -1061 0
-1357 3920 0
-1369 3920 0
1357 1369 -3920 0
3921 -3920 0
-3921 3920 0
-1359 3922 0
-1371 3922 0
-3921 3922 0
1359 1371 3921 -3922 0
3923 -3922 0
3922 -3923 0
-1359 -3921 0
-1371 -3921 0
1370 -1358 0
1358 -1370 0
1372 -1360 0
1360 -1372 0
1373 -1361 0
1361 -1373 0
-745 3924 0
-757 3924 0
-2125 3924 0
-2377 3924 0
745 757 2125 2377 -3924 0
3925 -3924 0
-3925 3924 0
-747 3926 0
-759 3926 0
-2127 3926 0
-2379 3926 0
-3925 3926 0
747 759 2127 2379 3925 -3926 0
3927 -3926 0
3926 -3927 0
-747 -3925 0
-759 -3925 0
-2127 -3925 0
-2379 -3925 0
-746 3928 0
-758 3928 0
2126 3928 0
2378 3928 0
746 758 -2126 -2378 -3928 0
-746 3929 0
758 3929 0
-2126 3929 0
2378 3929 0
746 -758 2126 -2378 -3929 0
-746 3930 0
758 3930 0
2126 3930 0
-2378 3930 0
746 -758 -2126 2378 -3930 0
746 3931 0
-758 3931 0
-2126 3931 0
2378 3931 0
-746 758 2126 -2378 -3931 0
746 3932 0
-758 3932 0
2126 3932 0
-2378 3932 0
-746 758 -2126 2378 -3932 0
746 -758 -3928 -3929 -3930 -3931 -3932 0
746 -2126 -3928 -3929 -3930 -3931 -3932 0
746 -2378 -3928 -3929 -3930 -3931 -3932 0
-746 758 -3928 -3929 -3930 -3931 -3932 0
758 -2126 -3928 -3929 -3930 -3931 -3932 0
758 -2378 -3928 -3929 -3930 -3931 -3932 0
-746 -2126 -3928 -3929 -3930 -3931 -3932 0
-758 -2126 -3928 -3929 -3930 -3931 -3932 0
-2126 -3928 -3929 -3930 -3931 -3932 0
-2126 -2378 -3928 -3929 -3930 -3931 -3932 0
-746 -2378 -3928 -3929 -3930 -3931 -3932 0
-758 -2378 -3928 -3929 -3930 -3931 -3932 0
-2378 -3928 -3929 -3930 -3931 -3932 0
-748 3933 0
-760 3933 0
2128 3933 0
2380 3933 0
748 760 -2128 -2380 -3933 0
-748 3934 0
760 3934 0
-2128 3934 0
2380 3934 0
748 -760 2128 -2380 -3934 0
-748 3935 0
760 3935 0
2128 3935 0
-2380 3935 0
748 -760 -2128 2380 -3935 0
748 3936 0
-760 3936 0
-2128 3936 0
2380 3936 0
-748 760 2128 -2380 -3936 0
748 3937 0
-760 3937 0
2128 3937 0
-2380 3937 0
-748 760 -2128 2380 -3937 0
748 -760 -3933 -3934 -3935 -3936 -3937 0
748 -2128 -3933 -3934 -3935 -3936 -3937 0
748 -2380 -3933 -3934 -3935 -3936 -3937 0
-748 760 -3933 -3934 -3935 -3936 -3937 0
760 -2128 -3933 -3934 -3935 -3936 -3937 0
760 -2380 -3933 -3934 -3935 -3936 -3937 0
-748 -2128 -3933 -3934 -3935 -3936 -3937 0
-760 -2128 -3933 -3934 -3935 -3936 -3937 0
-2128 -3933 -3934 -3935 -3936 -3937 0
-2128 -2380 -3933 -3934 -3935 -3936 -3937 0
-748 -2380 -3933 -3934 -3935 -3936 -3937 0
-760 -2380 -3933 -3934 -3935 -3936 -3937 0
-2380 -3933 -3934 -3935 -3936 -3937 0
-749 3938 0
-761 3938 0
2129 3938 0
2381 3938 0
749 761 -2129 -2381 -3938 0
-749 3939 0
761 3939 0
-2129 3939 0
2381 3939 0
749 -761 2129 -2381 -3939 0
-749 3940 0
761 3940 0
2129 3940 0
-2381 3940 0
749 -761 -2129 2381 -3940 0
749 3941 0
-761 3941 0
-2129 3941 0
2381 3941 0
-749 761 2129 -2381 -3941 0
749 3942 0
-761 3942 0
2129 3942 0
-2381 3942 0
-749 761 -2129 2381 -3942 0
749 -761 -3938 -3939 -3940 -3941 -3942 0
749 -2129 -3938 -3939 -3940 -3941 -3942 0
749 -2381 -3938 -3939 -3940 -3941 -3942 0
-749 761 -3938 -3939 -3940 -3941 -3942 0
761 -2129 -3938 -3939 -3940 -3941 -3942 0
761 -2381 -3938 -3939 -3940 -3941 -3942 0
-749 -2129 -3938 -3939 -3940 -3941 -3942 0
-761 -2129 -3938 -3939 -3940 -3941 -3942 0
-2129 -3938 -3939 -3940 -3941 -3942 0
-2129 -2381 -3938 -3939 -3940 -3941 -3942 0
-749 -2381 -3938 -3939 -3940 -3941 -3942 0
-761 -2381 -3938 -3939 -3940 -3941 -3942 0
-2381 -3938 -3939 -3940 -3941 -3942 0
-1057 3943 0
-1069 3943 0
-2137 3943 0
-2389 3943 0
1057 1069 2137 2389 -3943 0
3944 -3943 0
-3944 3943 0
-1059 3945 0
-1071 3945 0
-2139 3945 0
-2391 3945 0
-3944 3945 0
1059 1071 2139 2391 3944 -3945 0
3946 -3945 0
3945 -3946 0
-1059 -3944 0
-1071 -3944 0
-2139 -3944 0
-2391 -3944 0
-1058 3947 0
-1070 3947 0
2138 3947 0
2390 3947 0
1058 1070 -2138 -2390 -3947 0
-1058 3948 0
1070 3948 0
-2138 3948 0
2390 3948 0
1058 -1070 2138 -2390 -3948 0
-1058 3949 0
1070 3949 0
2138 3949 0
-2390 3949 0
1058 -1070 -2138 2390 -3949 0
1058 3950 0
-1070 3950 0
-2138 3950 0
2390 3950 0
-1058 1070 2138 -2390 -3950 0
1058 3951 0
-1070 3951 0
2138 3951 0
-2390 3951 0
-1058 1070 -2138 2390 -3951 0
1058 -1070 -3947 -3948 -3949 -3950 -3951 0
1058 -2138 -3947 -3948 -3949 -3950 -3951 0
1058 -2390 -3947 -3948 -3949 -3950 -3951 0
-1058 1070 -3947 -3948 -3949 -3950 -3951 0
1070 -2138 -3947 -3948 -3949 -3950 -3951 0
1070 -2390 -3947 -3948 -3949 -3950 -3951 0
-1058 -2138 -3947 -3948 -3949 -3950 -3951 0
-1070 -2138 -3947 -3948 -3949 -3950 -3951 0
-2138 -3947 -3948 -3949 -3950 -3951 0
-2138 -2390 -3947 -3948 -3949 -3950 -3951 0
-1058 -2390 -3947 -3948 -3949 -3950 -3951 0
-1070 -2390 -3947 -3948 -3949 -3950 -3951 0
-2390 -3947 -3948 -3949 -3950 -3951 0
-1060 3952 0
-1072 3952 0
2140 3952 0
2392 3952 0
1060 1072 -2140 -2392 -3952 0
-1060 3953 0
1072 3953 0
-2140 3953 0
2392 3953 0
1060 -1072 2140 -2392 -3953 0
-1060 3954 0
1072 3954 0
2140 3954 0
-2392 3954 0
1060 -1072 -2140 2392 -3954 0
1060 3955 0
-1072 3955 0
-2140 3955 0
2392 3955 0
-1060 1072 2140 -2392 -3955 0
1060 3956 0
-1072 3956 0
2140 3956 0
-2392 3956 0
-1060 1072 -2140 2392 -3956 0
1060 -1072 -3952 -3953 -3954 -3955 -3956 0
1060 -2140 -3952 -3953 -3954 -3955 -3956 0
1060 -2392 -3952 -3953 -3954 -3955 -3956 0
-1060 1072 -3952 -3953 -3954 -3955 -3956 0
1072 -2140 -3952 -3953 -3954 -3955 -3956 0
1072 -2392 -3952 -3953 -3954 -3955 -3956 0
-1060 -2140 -3952 -3953 -3954 -3955 -3956 0
-1072 -2140 -3952 -3953 -3954 -3955 -3956 0
-2140 -3952 -3953 -3954 -3955 -3956 0
-2140 -2392 -3952 -3953 -3954 -3955 -3956 0
-1060 -2392 -3952 -3953 -3954 -3955 -3956 0
-1072 -2392 -3952 -3953 -3954 -3955 -3956 0
-2392 -3952 -3953 -3954 -3955 -3956 0
-1061 3957 0
-1073 3957 0
2141 3957 0
2393 3957 0
1061 1073 -2141 -2393 -3957 0
-1061 3958 0
1073 3958 0
-2141 3958 0
2393 3958 0
1061 -1073 2141 -2393 -3958 0
-1061 3959 0
1073 3959 0
2141 3959 0
-2393 3959 0
1061 -1073 -2141 2393 -3959 0
1061 3960 0
-1073 3960 0
-2141 3960 0
2393 3960 0
-1061 1073 2141 -2393 -3960 0
1061 3961 0
-1073 3961 0
2141 3961 0
-2393 3961 0
-1061 1073 -2141 2393 -3961 0
1061 -1073 -3957 -3958 -3959 -3960 -3961 0
1061 -2141 -3957 -3958 -3959 -3960 -3961 0
1061 -2393 -3957 -3958 -3959 -3960 -3961 0
-1061 1073 -3957 -3958 -3959 -3960 -3961 0
1073 -2141 -3957 -3958 -3959 -3960 -3961 0
1073 -2393 -3957 -3958 -3959 -3960 -3961 0
-1061 -2141 -3957 -3958 -3959 -3960 -3961 0
-1073 -2141 -3957 -3958 -3959 -3960 -3961 0
-2141 -3957 -3958 -3959 -3960 -3961 0
-2141 -2393 -3957 -3958 -3959 -3960 -3961 0
-1061 -2393 -3957 -3958 -3959 -3960 -3961 0
-1073 -2393 -3957 -3958 -3959 -3960 -3961 0
-2393 -3957 -3958 -3959 -3960 -3961 0
-1369 3962 0
-1381 3962 0
-2149 3962 0
-2401 3962 0
1369 1381 2149 2401 -3962 0
3963 -3962 0
-3963 3962 0
-1371 3964 0
-1383 3964 0
-2151 3964 0
-2403 3964 0
-3963 3964 0
1371 1383 2151 2403 3963 -3964 0
3965 -3964 0
3964 -3965 0
-1371 -3963 0
-1383 -3963 0
-2151 -3963 0
-2403 -3963 0
-1370 3966 0
-1382 3966 0
2150 3966 0
2402 3966 0
1370 1382 -2150 -2402 -3966 0
-1370 3967 0
1382 3967 0
-2150 3967 0
2402 3967 0
1370 -1382 2150 -2402 -3967 0
-1370 3968 0
1382 3968 0
2150 3968 0
-2402 3968 0
1370 -1382 -2150 2402 -3968 0
1370 3969 0
-1382 3969 0
-2150 3969 0
2402 3969 0
-1370 1382 2150 -2402 -3969 0
1370 3970 0
-1382 3970 0
2150 3970 0
-2402 3970 0
-1370 1382 -2150 2402 -3970 0
1370 -1382 -3966 -3967 -3968 -3969 -3970 0
1370 -2150 -3966 -3967 -3968 -3969 -3970 0
1370 -2402 -3966 -3967 -3968 -3969 -3970 0
-1370 1382 -3966 -3967 -3968 -3969 -3970 0
1382 -2150 -3966 -3967 -3968 -3969 -3970 0
1382 -2402 -3966 -3967 -3968 -3969 -3970 0
-1370 -2150 -3966 -3967 -3968 -3969 -3970 0
-1382 -2150 -3966 -3967 -3968 -3969 -3970 0
-2150 -3966 -3967 -3968 -3969 -3970 0
-2150 -2402 -3966 -3967 -3968 -3969 -3970 0
-1370 -2402 -3966 -3967 -3968 -3969 -3970 0
-1382 -2402 -3966 -3967 -3968 -3969 -3970 0
-2402 -3966 -3967 -3968 -3969 -3970 0
-1372 3971 0
-1384 3971 0
2152 3971 0
2404 3971 0
1372 1384 -2152 -2404 -3971 0
-1372 3972 0
1384 3972 0
-2152 3972 0
2404 3972 0
1372 -1384 2152 -2404 -3972 0
-1372 3973 0
1384 3973 0
2152 3973 0
-2404 3973 0
1372 -1384 -2152 2404 -3973 0
1372 3974 0
-1384 3974 0
-2152 3974 0
2404 3974 0
-1372 1384 2152 -2404 -3974 0
1372 3975 0
-1384 3975 0
2152 3975 0
-2404 3975 0
-1372 1384 -2152 2404 -3975 0
1372 -1384 -3971 -3972 -3973 -3974 -3975 0
1372 -2152 -3971 -3972 -3973 -3974 -3975 0
1372 -2404 -3971 -3972 -3973 -3974 -3975 0
-1372 1384 -3971 -3972 -3973 -3974 -3975 0
1384 -2152 -3971 -3972 -3973 -3974 -3975 0
1384 -2404 -3971 -3972 -3973 -3974 -3975 0
-1372 -2152 -3971 -3972 -3973 -3974 -3975 0
-1384 -2152 -3971 -3972 -3973 -3974 -3975 0
-2152 -3971 -3972 -3973 -3974 -3975 0
-2152 -2404 -3971 -3972 -3973 -3974 -3975 0
-1372 -2404 -3971 -3972 -3973 -3974 -3975 0
-1384 -2404 -3971 -3972 -3973 -3974 -3975 0
-2404 -3971 -3972 -3973 -3974 -3975 0
-1373 3976 0
-1385 3976 0
2153 3976 0
2405 3976 0
1373 1385 -2153 -2405 -3976 0
-1373 3977 0
1385 3977 0
-2153 3977 0
2405 3977 0
1373 -1385 2153 -2405 -3977 0
-1373 3978 0
1385 3978 0
2153 3978 0
-2405 3978 0
1373 -1385 -2153 2405 -3978 0
1373 3979 0
-1385 3979 0
-2153 3979 0
2405 3979 0
-1373 1385 2153 -2405 -3979 0
1373 3980 0
-1385 3980 0
2153 3980 0
-2405 3980 0
-1373 1385 -2153 2405 -3980 0
1373 -1385 -3976 -3977 -3978 -3979 -3980 0
1373 -2153 -3976 -3977 -3978 -3979 -3980 0
1373 -2405 -3976 -3977 -3978 -3979 -3980 0
-1373 1385 -3976 -3977 -3978 -3979 -3980 0
1385 -2153 -3976 -3977 -3978 -3979 -3980 0
1385 -2405 -3976 -3977 -3978 -3979 -3980 0
-1373 -2153 -3976 -3977 -3978 -3979 -3980 0
-1385 -2153 -3976 -3977 -3978 -3979 -3980 0
-2153 -3976 -3977 -3978 -3979 -3980 0
-2153 -2405 -3976 -3977 -3978 -3979 -3980 0
-1373 -2405 -3976 -3977 -3978 -3979 -3980 0
-1385 -2405 -3976 -3977 -3978 -3979 -3980 0
-2405 -3976 -3977 -3978 -3979 -3980 0
-757 3981 0
-769 3981 0
757 769 -3981 0
3982 -3981 0
-3982 3981 0
-759 3983 0
-771 3983 0
-3982 3983 0
759 771 3982 -3983 0
3984 -3983 0
3983 -3984 0
-759 -3982 0
-771 -3982 0
758 -770 0
-758 770 0
772 -760 0
760 -772 0
773 -761 0
761 -773 0
-1069 3985 0
-1081 3985 0
1069 1081 -3985 0
3986 -3985 0
-3986 3985 0
-1071 3987 0
-1083 3987 0
-3986 3987 0
1071 1083 3986 -3987 0
3988 -3987 0
3987 -3988 0
-1071 -3986 0
-1083 -3986 0
1082 -1070 0
1070 -1082 0
1084 -1072 0
1072 -1084 0
1085 -1073 0
1073 -1085 0
-1381 3989 0
-1393 3989 0
1381 1393 -3989 0
3990 -3989 0
-3990 3989 0
-1383 3991 0
-1395 3991 0
-3990 3991 0
1383 1395 3990 -3991 0
3992 -3991 0
3991 -3992 0
-1383 -3990 0
-1395 -3990 0
1394 -1382 0
1382 -1394 0
1396 -1384 0
1384 -1396 0
1397 -1385 0
1385 -1397 0
-769 3993 0
-781 3993 0
769 781 -3993 0
3994 -3993 0
-3994 3993 0
-771 3995 0
-783 3995 0
-3994 3995 0
771 783 3994 -3995 0
3996 -3995 0
3995 -3996 0
-771 -3994 0
-783 -3994 0
782 -770 0
770 -782 0
784 -772 0
772 -784 0
785 -773 0
773 -785 0
-1081 3997 0
-1093 3997 0
1081 1093 -3997 0
3998 -3997 0
-3998 3997 0
-1083 3999 0
-1095 3999 0
-3998 3999 0
1083 1095 3998 -3999 0
4000 -3999 0
3999 -4000 0
-1083 -3998 0
-1095 -3998 0
1094 -1082 0
1082 -1094 0
1096 -1084 0
1084 -1096 0
1097 -1085 0
1085 -1097 0
-1393 4001 0
-1405 4001 0
1393 1405 -4001 0
4002 -4001 0
-4002 4001 0
-1395 4003 0
-1407 4003 0
-4002 4003 0
1395 1407 4002 -4003 0
4004 -4003 0
4003 -4004 0
-1395 -4002 0
-1407 -4002 0
1406 -1394 0
1394 -1406 0
1408 -1396 0
1396 -1408 0
1409 -1397 0
1397 -1409 0
-781 4005 0
-793 4005 0
781 793 -4005 0
4006 -4005 0
-4006 4005 0
-783 4007 0
-795 4007 0
-4006 4007 0
783 795 4006 -4007 0
4008 -4007 0
4007 -4008 0
-783 -4006 0
-795 -4006 0
794 -782 0
782 -794 0
796 -784 0
784 -796 0
797 -785 0
785 -797 0
-1093 4009 0
-1105 4009 0
1093 1105 -4009 0
4010 -4009 0
-4010 4009 0
-1095 4011 0
-1107 4011 0
-4010 4011 0
1095 1107 4010 -4011 0
4012 -4011 0
4011 -4012 0
-1095 -4010 0
-1107 -4010 0
1106 -1094 0
1094 -1106 0
1108 -1096 0
1096 -1108 0
1109 -1097 0
1097 -1109 0
-1405 4013 0
-1417 4013 0
1405 1417 -4013 0
4014 -4013 0
-4014 4013 0
-1407 4015 0
-1419 4015 0
-4014 4015 0
1407 1419 4014 -4015 0
4016 -4015 0
4015 -4016 0
-1407 -4014 0
-1419 -4014 0
1418 -1406 0
1406 -1418 0
1420 -1408 0
1408 -1420 0
1421 -1409 0
1409 -1421 0
-793 4017 0
-805 4017 0
-2161 4017 0
-2413 4017 0
793 805 2161 2413 -4017 0
4018 -4017 0
-4018 4017 0
-795 4019 0
-807 4019 0
-2163 4019 0
-2415 4019 0
-4018 4019 0
795 807 2163 2415 4018 -4019 0
4020 -4019 0
4019 -4020 0
-795 -4018 0
-807 -4018 0
-2163 -4018 0
-2415 -4018 0
-794 4021 0
-806 4021 0
2162 4021 0
2414 4021 0
794 806 -2162 -2414 -4021 0
-794 4022 0
806 4022 0
-2162 4022 0
2414 4022 0
794 -806 2162 -2414 -4022 0
-794 4023 0
806 4023 0
2162 4023 0
-2414 4023 0
794 -806 -2162 2414 -4023 0
794 4024 0
-806 4024 0
-2162 4024 0
2414 4024 0
-794 806 2162 -2414 -4024 0
794 4025 0
-806 4025 0
2162 4025 0
-2414 4025 0
-794 806 -2162 2414 -4025 0
794 -806 -4021 -4022 -4023 -4024 -4025 0
794 -2162 -4021 -4022 -4023 -4024 -4025 0
794 -2414 -4021 -4022 -4023 -4024 -4025 0
-794 806 -4021 -4022 -4023 -4024 -4025 0
806 -2162 -4021 -4022 -4023 -4024 -4025 0
806 -2414 -4021 -4022 -4023 -4024 -4025 0
-794 -2162 -4021 -4022 -4023 -4024 -4025 0
-806 -2162 -4021 -4022 -4023 -4024 -4025 0
-2162 -4021 -4022 -4023 -4024 -4025 0
-2162 -2414 -4021 -4022 -4023 -4024 -4025 0
-794 -2414 -4021 -4022 -4023 -4024 -4025 0
-806 -2414 -4021 -4022 -4023 -4024 -4025 0
-2414 -4021 -4022 -4023 -4024 -4025 0
-796 4026 0
-808 4026 0
2164 4026 0
2416 4026 0
796 808 -2164 -2416 -4026 0
-796 4027 0
808 4027 0
-2164 4027 0
2416 4027 0
796 -808 2164 -2416 -4027 0
-796 4028 0
808 4028 0
2164 4028 0
-2416 4028 0
796 -808 -2164 2416 -4028 0
796 4029 0
-808 4029 0
-2164 4029 0
2416 4029 0
-796 808 2164 -2416 -4029 0
796 4030 0
-808 4030 0
2164 4030 0
-2416 4030 0
-796 808 -2164 2416 -4030 0
796 -808 -4026 -4027 -4028 -4029 -4030 0
796 -2164 -4026 -4027 -4028 -4029 -4030 0
796 -2416 -4026 -4027 -4028 -4029 -4030 0
-796 808 -4026 -4027 -4028 -4029 -4030 0
808 -2164 -4026 -4027 -4028 -4029 -4030 0
808 -2416 -4026 -4027 -4028 -4029 -4030 0
-796 -2164 -4026 -4027 -4028 -4029 -4030 0
-808 -2164 -4026 -4027 -4028 -4029 -4030 0
-2164 -4026 -4027 -4028 -4029 -4030 0
-2164 -2416 -4026 -4027 -4028 -4029 -4030 0
-796 -2416 -4026 -4027 -4028 -4029 -4030 0
-808 -2416 -4026 -4027 -4028 -4029 -4030 0
-2416 -4026 -4027 -4028 -4029 -4030 0
-797 4031 0
-809 4031 0
2165 4031 0
2417 4031 0
797 809 -2165 -2417 -4031 0
-797 4032 0
809 4032 0
-2165 4032 0
2417 4032 0
797 -809 2165 -2417 -4032 0
-797 4033 0
809 4033 0
2165 4033 0
-2417 4033 0
797 -809 -2165 2417 -4033 0
797 4034 0
-809 4034 0
-2165 4034 0
2417 4034 0
-797 809 2165 -2417 -4034 0
797 4035 0
-809 4035 0
2165 4035 0
-2417 4035 0
-797 809 -2165 2417 -4035 0
797 -809 -4031 -4032 -4033 -4034 -4035 0
797 -2165 -4031 -4032 -4033 -4034 -4035 0
797 -2417 -4031 -4032 -4033 -4034 -4035 0
-797 809 -4031 -4032 -4033 -4034 -4035 0
809 -2165 -4031 -4032 -4033 -4034 -4035 0
809 -2417 -4031 -4032 -4033 -4034 -4035 0
-797 -2165 -4031 -4032 -4033 -4034 -4035 0
-809 -2165 -4031 -4032 -4033 -4034 -4035 0
-2165 -4031 -4032 -4033 -4034 -4035 0
-2165 -2417 -4031 -4032 -4033 -4034 -4035 0
-797 -2417 -4031 -4032 -4033 -4034 -4035 0
-809 -2417 -4031 -4032 -4033 -4034 -4035 0
-2417 -4031 -4032 -4033 -4034 -4035 0
-1105 4036 0
-1117 4036 0
-2173 4036 0
-2425 4036 0
1105 1117 2173 2425 -4036 0
4037 -4036 0
-4037 4036 0
-1107 4038 0
-1119 4038 0
-2175 4038 0
-2427 4038 0
-4037 4038 0
1107 1119 2175 2427 4037 -4038 0
4039 -4038 0
4038 -4039 0
-1107 -4037 0
-1119 -4037 0
-2175 -4037 0
-2427 -4037 0
-1106 4040 0
-1118 4040 0
2174 4040 0
2426 4040 0
1106 1118 -2174 -2426 -4040 0
-1106 4041 0
1118 4041 0
-2174 4041 0
2426 4041 0
1106 -1118 2174 -2426 -4041 0
-1106 4042 0
1118 4042 0
2174 4042 0
-2426 4042 0
1106 -1118 -2174 2426 -4042 0
1106 4043 0
-1118 4043 0
-2174 4043 0
2426 4043 0
-1106 1118 2174 -2426 -4043 0
1106 4044 0
-1118 4044 0
2174 4044 0
-2426 4044 0
-1106 1118 -2174 2426 -4044 0
1106 -1118 -4040 -4041 -4042 -4043 -4044 0
1106 -2174 -4040 -4041 -4042 -4043 -4044 0
1106 -2426 -4040 -4041 -4042 -4043 -4044 0
-1106 1118 -4040 -4041 -4042 -4043 -4044 0
1118 -2174 -4040 -4041 -4042 -4043 -4044 0
1118 -2426 -4040 -4041 -4042 -4043 -4044 0
-1106 -2174 -4040 -4041 -4042 -4043 -4044 0
-1118 -2174 -4040 -4041 -4042 -4043 -4044 0
-2174 -4040 -4041 -4042 -4043 -4044 0
-2174 -2426 -4040 -4041 -4042 -4043 -4044 0
-1106 -2426 -4040 -4041 -4042 -4043 -4044 0
-1118 -2426 -4040 -4041 -4042 -4043 -4044 0
-2426 -4040 -4041 -4042 -4043 -4044 0
-1108 4045 0
-1120 4045 0
2176 4045 0
2428 4045 0
1108 1120 -2176 -2428 -4045 0
-1108 4046 0
1120 4046 0
-2176 4046 0
2428 4046 0
1108 -1120 2176 -2428 -4046 0
-1108 4047 0
1120 4047 0
2176 4047 0
-2428 4047 0
1108 -1120 -2176 2428 -4047 0
1108 4048 0
-1120 4048 0
-2176 4048 0
2428 4048 0
-1108 1120 2176 -2428 -4048 0
1108 4049 0
-1120 4049 0
2176 4049 0
-2428 4049 0
-1108 1120 -2176 2428 -4049 0
1108 -1120 -4045 -4046 -4047 -4048 -4049 0
1108 -2176 -4045 -4046 -4047 -4048 -4049 0
1108 -2428 -4045 -4046 -4047 -4048 -4049 0
-1108 1120 -4045 -4046 -4047 -4048 -4049 0
1120 -2176 -4045 -4046 -4047 -4048 -4049 0
1120 -2428 -4045 -4046 -4047 -4048 -4049 0
-1108 -2176 -4045 -4046 -4047 -4048 -4049 0
-1120 -2176 -4045 -4046 -4047 -4048 -4049 0
-2176 -4045 -4046 -4047 -4048 -4049 0
-2176 -2428 -4045 -4046 -4047 -4048 -4049 0
-1108 -2428 -4045 -4046 -4047 -4048 -4049 0
-1120 -2428 -4045 -4046 -4047 -4048 -4049 0
-2428 -4045 -4046 -4047 -4048 -4049 0
-1109 4050 0
-1121 4050 0
2177 4050 0
2429 4050 0
1109 1121 -2177 -2429 -4050 0
-1109 4051 0
1121 4051 0
-2177 4051 0
2429 4051 0
1109 -1121 2177 -2429 -4051 0
-1109 4052 0
1121 4052 0
2177 4052 0
-2429 4052 0
1109 -1121 -2177 2429 -4052 0
1109 4053 0
-1121 4053 0
-2177 4053 0
2429 4053 0
-1109 1121 2177 -2429 -4053 0
1109 4054 0
-1121 4054 0
2177 4054 0
-2429 4054 0
-1109 1121 -2177 2429 -4054 0
1109 -1121 -4050 -4051 -4052 -4053 -4054 0
1109 -2177 -4050 -4051 -4052 -4053 -4054 0
1109 -2429 -4050 -4051 -4052 -4053 -4054 0
-1109 1121 -4050 -4051 -4052 -4053 -4054 0
1121 -2177 -4050 -4051 -4052 -4053 -4054 0
1121 -2429 -4050 -4051 -4052 -4053 -4054 0
-1109 -2177 -4050 -4051 -4052 -4053 -4054 0
-1121 -2177 -4050 -4051 -4052 -4053 -4054 0
-2177 -4050 -4051 -4052 -4053 -4054 0
-2177 -2429 -4050 -4051 -4052 -4053 -4054 0
-1109 -2429 -4050 -4051 -4052 -4053 -4054 0
-1121 -2429 -4050 -4051 -4052 -4053 -4054 0
-2429 -4050 -4051 -4052 -4053 -4054 0
-1417 4055 0
-1429 4055 0
-2185 4055 0
-2437 4055 0
1417 1429 2185 2437 -4055 0
4056 -4055 0
-4056 4055 0
-1419 4057 0
-1431 4057 0
-2187 4057 0
-2439 4057 0
-4056 4057 0
1419 1431 2187 2439 4056 -4057 0
4058 -4057 0
4057 -4058 0
-1419 -4056 0
-1431 -4056 0
-2187 -4056 0
-2439 -4056 0
-1418 4059 0
-1430 4059 0
2186 4059 0
2438 4059 0
1418 1430 -2186 -2438 -4059 0
-1418 4060 0
1430 4060 0
-2186 4060 0
2438 4060 0
1418 -1430 2186 -2438 -4060 0
-1418 4061 0
1430 4061 0
2186 4061 0
-2438 4061 0
1418 -1430 -2186 2438 -4061 0
1418 4062 0
-1430 4062 0
-2186 4062 0
2438 4062 0
-1418 1430 2186 -2438 -4062 0
1418 4063 0
-1430 4063 0
2186 4063 0
-2438 4063 0
-1418 1430 -2186 2438 -4063 0
1418 -1430 -4059 -4060 -4061 -4062 -4063 0
1418 -2186 -4059 -4060 -4061 -4062 -4063 0
1418 -2438 -4059 -4060 -4061 -4062 -4063 0
-1418 1430 -4059 -4060 -4061 -4062 -4063 0
1430 -2186 -4059 -4060 -4061 -4062 -4063 0
1430 -2438 -4059 -4060 -4061 -4062 -4063 0
-1418 -2186 -4059 -4060 -4061 -4062 -4063 0
-1430 -2186 -4059 -4060 -4061 -4062 -4063 0
-2186 -4059 -4060 -4061 -4062 -4063 0
-2186 -2438 -4059 -4060 -4061 -4062 -4063 0
-1418 -2438 -4059 -4060 -4061 -4062 -4063 0
-1430 -2438 -4059 -4060 -4061 -4062 -4063 0
-2438 -4059 -4060 -4061 -4062 -4063 0
-1420 4064 0
-1432 4064 0
2188 4064 0
2440 4064 0
1420 1432 -2188 -2440 -4064 0
-1420 4065 0
1432 4065 0
-2188 4065 0
2440 4065 0
1420 -1432 2188 -2440 -4065 0
-1420 4066 0
1432 4066 0
2188 4066 0
-2440 4066 0
1420 -1432 -2188 2440 -4066 0
1420 4067 0
-1432 4067 0
-2188 4067 0
2440 4067 0
-1420 1432 2188 -2440 -4067 0
1420 4068 0
-1432 4068 0
2188 4068 0
-2440 4068 0
-1420 1432 -2188 2440 -4068 0
1420 -1432 -4064 -4065 -4066 -4067 -4068 0
1420 -2188 -4064 -4065 -4066 -4067 -4068 0
1420 -2440 -4064 -4065 -4066 -4067 -4068 0
-1420 1432 -4064 -4065 -4066 -4067 -4068 0
1432 -2188 -4064 -4065 -4066 -4067 -4068 0
1432 -2440 -4064 -4065 -4066 -4067 -4068 0
-1420 -2188 -4064 -4065 -4066 -4067 -4068 0
-1432 -2188 -4064 -4065 -4066 -4067 -4068 0
-2188 -4064 -4065 -4066 -4067 -4068 0
-2188 -2440 -4064 -4065 -4066 -4067 -4068 0
-1420 -2440 -4064 -4065 -4066 -4067 -4068 0
-1432 -2440 -4064 -4065 -4066 -4067 -4068 0
-2440 -4064 -4065 -4066 -4067 -4068 0
-1421 4069 0
-1433 4069 0
2189 4069 0
2441 4069 0
1421 1433 -2189 -2441 -4069 0
-1421 4070 0
1433 4070 0
-2189 4070 0
2441 4070 0
1421 -1433 2189 -2441 -4070 0
-1421 4071 0
1433 4071 0
2189 4071 0
-2441 4071 0
1421 -1433 -2189 2441 -4071 0
1421 4072 0
-1433 4072 0
-2189 4072 0
2441 4072 0
-1421 1433 2189 -2441 -4072 0
1421 4073 0
-1433 4073 0
2189 4073 0
-2441 4073 0
-1421 1433 -2189 2441 -4073 0
1421 -1433 -4069 -4070 -4071 -4072 -4073 0
1421 -2189 -4069 -4070 -4071 -4072 -4073 0
1421 -2441 -4069 -4070 -4071 -4072 -4073 0
-1421 1433 -4069 -4070 -4071 -4072 -4073 0
1433 -2189 -4069 -4070 -4071 -4072 -4073 0
1433 -2441 -4069 -4070 -4071 -4072 -4073 0
-1421 -2189 -4069 -4070 -4071 -4072 -4073 0
-1433 -2189 -4069 -4070 -4071 -4072 -4073 0
-2189 -4069 -4070 -4071 -4072 -4073 0
-2189 -2441 -4069 -4070 -4071 -4072 -4073 0
-1421 -2441 -4069 -4070 -4071 -4072 -4073 0
-1433 -2441 -4069 -4070 -4071 -4072 -4073 0
-2441 -4069 -4070 -4071 -4072 -4073 0
4074 -805 0
805 -4074 0
-807 4075 0
-4074 4075 0
807 4074 -4075 0
4076 -4075 0
4075 -4076 0
-807 -4074 0
-806 0
-808 0
-809 0
4077 -1117 0
1117 -4077 0
-1119 4078 0
-4077 4078 0
1119 4077 -4078 0
4079 -4078 0
4078 -4079 0
-1119 -4077 0
-1118 0
-1120 0
-1121 0
4080 -1429 0
1429 -4080 0
-1431 4081 0
-4080 4081 0
1431 4080 -4081 0
4082 -4081 0
4081 -4082 0
-1431 -4080 0
-1430 0
-1432 0
-1433 0
4083 -1441 0
1441 -4083 0
-1443 4084 0
-4083 4084 0
1443 4083 -4084 0
4085 -4084 0
4084 -4085 0
-1443 -4083 0
-1442 0
-1444 0
-1445 0
-1441 4086 0
-1453 4086 0
-1945 4086 0
-2701 4086 0
1441 1453 1945 2701 -4086 0
4087 -4086 0
-4087 4086 0
-1443 4088 0
-1455 4088 0
-1947 4088 0
-2703 4088 0
-4087 4088 0
1443 1455 1947 2703 4087 -4088 0
4089 -4088 0
4088 -4089 0
-1443 -4087 0
-1455 -4087 0
-1947 -4087 0
-2703 -4087 0
-1442 4090 0
-1454 4090 0
1946 4090 0
2702 4090 0
1442 1454 -1946 -2702 -4090 0
-1442 4091 0
1454 4091 0
-1946 4091 0
2702 4091 0
1442 -1454 1946 -2702 -4091 0
-1442 4092 0
1454 4092 0
1946 4092 0
-2702 4092 0
1442 -1454 -1946 2702 -4092 0
1442 4093 0
-1454 4093 0
-1946 4093 0
2702 4093 0
-1442 1454 1946 -2702 -4093 0
1442 4094 0
-1454 4094 0
1946 4094 0
-2702 4094 0
-1442 1454 -1946 2702 -4094 0
1442 -1454 -4090 -4091 -4092 -4093 -4094 0
1442 -1946 -4090 -4091 -4092 -4093 -4094 0
1442 -2702 -4090 -4091 -4092 -4093 -4094 0
-1442 1454 -4090 -4091 -4092 -4093 -4094 0
1454 -1946 -4090 -4091 -4092 -4093 -4094 0
1454 -2702 -4090 -4091 -4092 -4093 -4094 0
-1442 -1946 -4090 -4091 -4092 -4093 -4094 0
-1454 -1946 -4090 -4091 -4092 -4093 -4094 0
-1946 -4090 -4091 -4092 -4093 -4094 0
-1946 -2702 -4090 -4091 -4092 -4093 -4094 0
-1442 -2702 -4090 -4091 -4092 -4093 -4094 0
-1454 -2702 -4090 -4091 -4092 -4093 -4094 0
-2702 -4090 -4091 -4092 -4093 -4094 0
-1444 4095 0
-1456 4095 0
1948 4095 0
2704 4095 0
1444 1456 -1948 -2704 -4095 0
-1444 4096 0
1456 4096 0
-1948 4096 0
2704 4096 0
1444 -1456 1948 -2704 -4096 0
-1444 4097 0
1456 4097 0
1948 4097 0
-2704 4097 0
1444 -1456 -1948 2704 -4097 0
1444 4098 0
-1456 4098 0
-1948 4098 0
2704 4098 0
-1444 1456 1948 -2704 -4098 0
1444 4099 0
-1456 4099 0
1948 4099 0
-2704 4099 0
-1444 1456 -1948 2704 -4099 0
1444 -1456 -4095 -4096 -4097 -4098 -4099 0
1444 -1948 -4095 -4096 -4097 -4098 -4099 0
1444 -2704 -4095 -4096 -4097 -4098 -4099 0
-1444 1456 -4095 -4096 -4097 -4098 -4099 0
1456 -1948 -4095 -4096 -4097 -4098 -4099 0
1456 -2704 -4095 -4096 -4097 -4098 -4099 0
-1444 -1948 -4095 -4096 -4097 -4098 -4099 0
-1456 -1948 -4095 -4096 -4097 -4098 -4099 0
-1948 -4095 -4096 -4097 -4098 -4099 0
-1948 -2704 -4095 -4096 -4097 -4098 -4099 0
-1444 -2704 -4095 -4096 -4097 -4098 -4099 0
-1456 -2704 -4095 -4096 -4097 -4098 -4099 0
-2704 -4095 -4096 -4097 -4098 -4099 0
-1445 4100 0
-1457 4100 0
1949 4100 0
2705 4100 0
1445 1457 -1949 -2705 -4100 0
-1445 4101 0
1457 4101 0
-1949 4101 0
2705 4101 0
1445 -1457 1949 -2705 -4101 0
-1445 4102 0
1457 4102 0
1949 4102 0
-2705 4102 0
1445 -1457 -1949 2705 -4102 0
1445 4103 0
-1457 4103 0
-1949 4103 0
2705 4103 0
-1445 1457 1949 -2705 -4103 0
1445 4104 0
-1457 4104 0
1949 4104 0
-2705 4104 0
-1445 1457 -1949 2705 -4104 0
1445 -1457 -4100 -4101 -4102 -4103 -4104 0
1445 -1949 -4100 -4101 -4102 -4103 -4104 0
1445 -2705 -4100 -4101 -4102 -4103 -4104 0
-1445 1457 -4100 -4101 -4102 -4103 -4104 0
1457 -1949 -4100 -4101 -4102 -4103 -4104 0
1457 -2705 -4100 -4101 -4102 -4103 -4104 0
-1445 -1949 -4100 -4101 -4102 -4103 -4104 0
-1457 -1949 -4100 -4101 -4102 -4103 -4104 0
-1949 -4100 -4101 -4102 -4103 -4104 0
-1949 -2705 -4100 -4101 -4102 -4103 -4104 0
-1445 -2705 -4100 -4101 -4102 -4103 -4104 0
-1457 -2705 -4100 -4101 -4102 -4103 -4104 0
-2705 -4100 -4101 -4102 -4103 -4104 0
-1453 4105 0
-1465 4105 0
1453 1465 -4105 0
4106 -4105 0
-4106 4105 0
-1455 4107 0
-1467 4107 0
-4106 4107 0
1455 1467 4106 -4107 0
4108 -4107 0
4107 -4108 0
-1455 -4106 0
-1467 -4106 0
1454 -1466 0
-1454 1466 0
1468 -1456 0
1456 -1468 0
1469 -1457 0
1457 -1469 0
-1465 4109 0
-1477 4109 0
-1957 4109 0
-2785 4109 0
1465 1477 1957 2785 -4109 0
4110 -4109 0
-4110 4109 0
-1467 4111 0
-1479 4111 0
-1959 4111 0
-2787 4111 0
-4110 4111 0
1467 1479 1959 2787 4110 -4111 0
4112 -4111 0
4111 -4112 0
-1467 -4110 0
-1479 -4110 0
-1959 -4110 0
-2787 -4110 0
-1466 4113 0
-1478 4113 0
1958 4113 0
2786 4113 0
1466 1478 -1958 -2786 -4113 0
-1466 4114 0
1478 4114 0
-1958 4114 0
2786 4114 0
1466 -1478 1958 -2786 -4114 0
-1466 4115 0
1478 4115 0
1958 4115 0
-2786 4115 0
1466 -1478 -1958 2786 -4115 0
1466 4116 0
-1478 4116 0
-1958 4116 0
2786 4116 0
-1466 1478 1958 -2786 -4116 0
1466 4117 0
-1478 4117 0
1958 4117 0
-2786 4117 0
-1466 1478 -1958 2786 -4117 0
1466 -1478 -4113 -4114 -4115 -4116 -4117 0
1466 -1958 -4113 -4114 -4115 -4116 -4117 0
1466 -2786 -4113 -4114 -4115 -4116 -4117 0
-1466 1478 -4113 -4114 -4115 -4116 -4117 0
1478 -1958 -4113 -4114 -4115 -4116 -4117 0
1478 -2786 -4113 -4114 -4115 -4116 -4117 0
-1466 -1958 -4113 -4114 -4115 -4116 -4117 0
-1478 -1958 -4113 -4114 -4115 -4116 -4117 0
-1958 -4113 -4114 -4115 -4116 -4117 0
-1958 -2786 -4113 -4114 -4115 -4116 -4117 0
-1466 -2786 -4113 -4114 -4115 -4116 -4117 0
-1478 -2786 -4113 -4114 -4115 -4116 -4117 0
-2786 -4113 -4114 -4115 -4116 -4117 0
-1468 4118 0
-1480 4118 0
1960 4118 0
2788 4118 0
1468 1480 -1960 -2788 -4118 0
-1468 4119 0
1480 4119 0
-1960 4119 0
2788 4119 0
1468 -1480 1960 -2788 -4119 0
-1468 4120 0
1480 4120 0
1960 4120 0
-2788 4120 0
1468 -1480 -1960 2788 -4120 0
1468 4121 0
-1480 4121 0
-1960 4121 0
2788 4121 0
-1468 1480 1960 -2788 -4121 0
1468 4122 0
-1480 4122 0
1960 4122 0
-2788 4122 0
-1468 1480 -1960 2788 -4122 0
1468 -1480 -4118 -4119 -4120 -4121 -4122 0
1468 -1960 -4118 -4119 -4120 -4121 -4122 0
1468 -2788 -4118 -4119 -4120 -4121 -4122 0
-1468 1480 -4118 -4119 -4120 -4121 -4122 0
1480 -1960 -4118 -4119 -4120 -4121 -4122 0
1480 -2788 -4118 -4119 -4120 -4121 -4122 0
-1468 -1960 -4118 -4119 -4120 -4121 -4122 0
-1480 -1960 -4118 -4119 -4120 -4121 -4122 0
-1960 -4118 -4119 -4120 -4121 -4122 0
-1960 -2788 -4118 -4119 -4120 -4121 -4122 0
-1468 -2788 -4118 -4119 -4120 -4121 -4122 0
-1480 -2788 -4118 -4119 -4120 -4121 -4122 0
-2788 -4118 -4119 -4120 -4121 -4122 0
-1469 4123 0
-1481 4123 0
1961 4123 0
2789 4123 0
1469 1481 -1961 -2789 -4123 0
-1469 4124 0
1481 4124 0
-1961 4124 0
2789 4124 0
1469 -1481 1961 -2789 -4124 0
-1469 4125 0
1481 4125 0
1961 4125 0
-2789 4125 0
1469 -1481 -1961 2789 -4125 0
1469 4126 0
-1481 4126 0
-1961 4126 0
2789 4126 0
-1469 1481 1961 -2789 -4126 0
1469 4127 0
-1481 4127 0
1961 4127 0
-2789 4127 0
-1469 1481 -1961 2789 -4127 0
1469 -1481 -4123 -4124 -4125 -4126 -4127 0
1469 -1961 -4123 -4124 -4125 -4126 -4127 0
1469 -2789 -4123 -4124 -4125 -4126 -4127 0
-1469 1481 -4123 -4124 -4125 -4126 -4127 0
1481 -1961 -4123 -4124 -4125 -4126 -4127 0
1481 -2789 -4123 -4124 -4125 -4126 -4127 0
-1469 -1961 -4123 -4124 -4125 -4126 -4127 0
-1481 -1961 -4123 -4124 -4125 -4126 -4127 0
-1961 -4123 -4124 -4125 -4126 -4127 0
-1961 -2789 -4123 -4124 -4125 -4126 -4127 0
-1469 -2789 -4123 -4124 -4125 -4126 -4127 0
-1481 -2789 -4123 -4124 -4125 -4126 -4127 0
-2789 -4123 -4124 -4125 -4126 -4127 0
-1477 4128 0
-1489 4128 0
1477 1489 -4128 0
4129 -4128 0
-4129 4128 0
-1479 4130 0
-1491 4130 0
-4129 4130 0
1479 1491 4129 -4130 0
4131 -4130 0
4130 -4131 0
-1479 -4129 0
-1491 -4129 0
1478 -1490 0
-1478 1490 0
1492 -1480 0
1480 -1492 0
1493 -1481 0
1481 -1493 0
-1489 4132 0
-1501 4132 0
-1969 4132 0
-2869 4132 0
1489 1501 1969 2869 -4132 0
4133 -4132 0
-4133 4132 0
-1491 4134 0
-1503 4134 0
-1971 4134 0
-2871 4134 0
-4133 4134 0
1491 1503 1971 2871 4133 -4134 0
4135 -4134 0
4134 -4135 0
-1491 -4133 0
-1503 -4133 0
-1971 -4133 0
-2871 -4133 0
-1490 4136 0
-1502 4136 0
1970 4136 0
2870 4136 0
1490 1502 -1970 -2870 -4136 0
-1490 4137 0
1502 4137 0
-1970 4137 0
2870 4137 0
1490 -1502 1970 -2870 -4137 0
-1490 4138 0
1502 4138 0
1970 4138 0
-2870 4138 0
1490 -1502 -1970 2870 -4138 0
1490 4139 0
-1502 4139 0
-1970 4139 0
2870 4139 0
-1490 1502 1970 -2870 -4139 0
1490 4140 0
-1502 4140 0
1970 4140 0
-2870 4140 0
-1490 1502 -1970 2870 -4140 0
1490 -1502 -4136 -4137 -4138 -4139 -4140 0
1490 -1970 -4136 -4137 -4138 -4139 -4140 0
1490 -2870 -4136 -4137 -4138 -4139 -4140 0
-1490 1502 -4136 -4137 -4138 -4139 -4140 0
1502 -1970 -4136 -4137 -4138 -4139 -4140 0
1502 -2870 -4136 -4137 -4138 -4139 -4140 0
-1490 -1970 -4136 -4137 -4138 -4139 -4140 0
-1502 -1970 -4136 -4137 -4138 -4139 -4140 0
-1970 -4136 -4137 -4138 -4139 -4140 0
-1970 -2870 -4136 -4137 -4138 -4139 -4140 0
-1490 -2870 -4136 -4137 -4138 -4139 -4140 0
-1502 -2870 -4136 -4137 -4138 -4139 -4140 0
-2870 -4136 -4137 -4138 -4139 -4140 0
-1492 4141 0
-1504 4141 0
1972 4141 0
2872 4141 0
1492 1504 -1972 -2872 -4141 0
-1492 4142 0
1504 4142 0
-1972 4142 0
2872 4142 0
1492 -1504 1972 -2872 -4142 0
-1492 4143 0
1504 4143 0
1972 4143 0
-2872 4143 0
1492 -1504 -1972 2872 -4143 0
1492 4144 0
-1504 4144 0
-1972 4144 0
2872 4144 0
-1492 1504 1972 -2872 -4144 0
1492 4145 0
-1504 4145 0
1972 4145 0
-2872 4145 0
-1492 1504 -1972 2872 -4145 0
1492 -1504 -4141 -4142 -4143 -4144 -4145 0
1492 -1972 -4141 -4142 -4143 -4144 -4145 0
1492 -2872 -4141 -4142 -4143 -4144 -4145 0
-1492 1504 -4141 -4142 -4143 -4144 -4145 0
1504 -1972 -4141 -4142 -4143 -4144 -4145 0
1504 -2872 -4141 -4142 -4143 -4144 -4145 0
-1492 -1972 -4141 -4142 -4143 -4144 -4145 0
-1504 -1972 -4141 -4142 -4143 -4144 -4145 0
-1972 -4141 -4142 -4143 -4144 -4145 0
-1972 -2872 -4141 -4142 -4143 -4144 -4145 0
-1492 -2872 -4141 -4142 -4143 -4144 -4145 0
-1504 -2872 -4141 -4142 -4143 -4144 -4145 0
-2872 -4141 -4142 -4143 -4144 -4145 0
-1493 4146 0
-1505 4146 0
1973 4146 0
2873 4146 0
1493 1505 -1973 -2873 -4146 0
-1493 4147 0
1505 4147 0
-1973 4147 0
2873 4147 0
1493 -1505 1973 -2873 -4147 0
-1493 4148 0
1505 4148 0
1973 4148 0
-2873 4148 0
1493 -1505 -1973 2873 -4148 0
1493 4149 0
-1505 4149 0
-1973 4149 0
2873 4149 0
-1493 1505 1973 -2873 -4149 0
1493 4150 0
-1505 4150 0
1973 4150 0
-2873 4150 0
-1493 1505 -1973 2873 -4150 0
1493 -1505 -4146 -4147 -4148 -4149 -4150 0
1493 -1973 -4146 -4147 -4148 -4149 -4150 0
1493 -2873 -4146 -4147 -4148 -4149 -4150 0
-1493 1505 -4146 -4147 -4148 -4149 -4150 0
1505 -1973 -4146 -4147 -4148 -4149 -4150 0
1505 -2873 -4146 -4147 -4148 -4149 -4150 0
-1493 -1973 -4146 -4147 -4148 -4149 -4150 0
-1505 -1973 -4146 -4147 -4148 -4149 -4150 0
-1973 -4146 -4147 -4148 -4149 -4150 0
-1973 -2873 -4146 -4147 -4148 -4149 -4150 0
-1493 -2873 -4146 -4147 -4148 -4149 -4150 0
-1505 -2873 -4146 -4147 -4148 -4149 -4150 0
-2873 -4146 -4147 -4148 -4149 -4150 0
4151 -1501 0
1501 -4151 0
-1503 4152 0
-4151 4152 0
1503 4151 -4152 0
4153 -4152 0
4152 -4153 0
-1503 -4151 0
-1502 0
-1504 0
-1505 0
4154 -1513 0
1513 -4154 0
-1515 4155 0
-4154 4155 0
1515 4154 -4155 0
4156 -4155 0
4155 -4156 0
-1515 -4154 0
-1514 0
-1516 0
-1517 0
-1513 4157 0
-1525 4157 0
-1981 4157 0
-2713 4157 0
1513 1525 1981 2713 -4157 0
4158 -4157 0
-4158 4157 0
-1515 4159 0
-1527 4159 0
-1983 4159 0
-2715 4159 0
-4158 4159 0
1515 1527 1983 2715 4158 -4159 0
4160 -4159 0
4159 -4160 0
-1515 -4158 0
-1527 -4158 0
-1983 -4158 0
-2715 -4158 0
-1514 4161 0
-1526 4161 0
1982 4161 0
2714 4161 0
1514 1526 -1982 -2714 -4161 0
-1514 4162 0
1526 4162 0
-1982 4162 0
2714 4162 0
1514 -1526 1982 -2714 -4162 0
-1514 4163 0
1526 4163 0
1982 4163 0
-2714 4163 0
1514 -1526 -1982 2714 -4163 0
1514 4164 0
-1526 4164 0
-1982 4164 0
2714 4164 0
-1514 1526 1982 -2714 -4164 0
1514 4165 0
-1526 4165 0
1982 4165 0
-2714 4165 0
-1514 1526 -1982 2714 -4165 0
1514 -1526 -4161 -4162 -4163 -4164 -4165 0
1514 -1982 -4161 -4162 -4163 -4164 -4165 0
1514 -2714 -4161 -4162 -4163 -4164 -4165 0
-1514 1526 -4161 -4162 -4163 -4164 -4165 0
1526 -1982 -4161 -4162 -4163 -4164 -4165 0
1526 -2714 -4161 -4162 -4163 -4164 -4165 0
-1514 -1982 -4161 -4162 -4163 -4164 -4165 0
-1526 -1982 -4161 -4162 -4163 -4164 -4165 0
-1982 -4161 -4162 -4163 -4164 -4165 0
-1982 -2714 -4161 -4162 -4163 -4164 -4165 0
-1514 -2714 -4161 -4162 -4163 -4164 -4165 0
-1526 -2714 -4161 -4162 -4163 -4164 -4165 0
-2714 -4161 -4162 -4163 -4164 -4165 0
-1516 4166 0
-1528 4166 0
1984 4166 0
2716 4166 0
1516 1528 -1984 -2716 -4166 0
-1516 4167 0
1528 4167 0
-1984 4167 0
2716 4167 0
1516 -1528 1984 -2716 -4167 0
-1516 4168 0
1528 4168 0
1984 4168 0
-2716 4168 0
1516 -1528 -1984 2716 -4168 0
1516 4169 0
-1528 4169 0
-1984 4169 0
2716 4169 0
-1516 1528 1984 -2716 -4169 0
1516 4170 0
-1528 4170 0
1984 4170 0
-2716 4170 0
-1516 1528 -1984 2716 -4170 0
1516 -1528 -4166 -4167 -4168 -4169 -4170 0
1516 -1984 -4166 -4167 -4168 -4169 -4170 0
1516 -2716 -4166 -4167 -4168 -4169 -4170 0
-1516 1528 -4166 -4167 -4168 -4169 -4170 0
1528 -1984 -4166 -4167 -4168 -4169 -4170 0
1528 -2716 -4166 -4167 -4168 -4169 -4170 0
-1516 -1984 -4166 -4167 -4168 -4169 -4170 0
-1528 -1984 -4166 -4167 -4168 -4169 -4170 0
-1984 -4166 -4167 -4168 -4169 -4170 0
-1984 -2716 -4166 -4167 -4168 -4169 -4170 0
-1516 -2716 -4166 -4167 -4168 -4169 -4170 0
-1528 -2716 -4166 -4167 -4168 -4169 -4170 0
-2716 -4166 -4167 -4168 -4169 -4170 0
-1517 4171 0
-1529 4171 0
1985 4171 0
2717 4171 0
1517 1529 -1985 -2717 -4171 0
-1517 4172 0
1529 4172 0
-1985 4172 0
2717 4172 0
1517 -1529 1985 -2717 -4172 0
-1517 4173 0
1529 4173 0
1985 4173 0
-2717 4173 0
1517 -1529 -1985 2717 -4173 0
1517 4174 0
-1529 4174 0
-1985 4174 0
2717 4174 0
-1517 1529 1985 -2717 -4174 0
1517 4175 0
-1529 4175 0
1985 4175 0
-2717 4175 0
-1517 1529 -1985 2717 -4175 0
1517 -1529 -4171 -4172 -4173 -4174 -4175 0
1517 -1985 -4171 -4172 -4173 -4174 -4175 0
1517 -2717 -4171 -4172 -4173 -4174 -4175 0
-1517 1529 -4171 -4172 -4173 -4174 -4175 0
1529 -1985 -4171 -4172 -4173 -4174 -4175 0
1529 -2717 -4171 -4172 -4173 -4174 -4175 0
-1517 -1985 -4171 -4172 -4173 -4174 -4175 0
-1529 -1985 -4171 -4172 -4173 -4174 -4175 0
-1985 -4171 -4172 -4173 -4174 -4175 0
-1985 -2717 -4171 -4172 -4173 -4174 -4175 0
-1517 -2717 -4171 -4172 -4173 -4174 -4175 0
-1529 -2717 -4171 -4172 -4173 -4174 -4175 0
-2717 -4171 -4172 -4173 -4174 -4175 0
-1525 4176 0
-1537 4176 0
1525 1537 -4176 0
4177 -4176 0
-4177 4176 0
-1527 4178 0
-1539 4178 0
-4177 4178 0
1527 1539 4177 -4178 0
4179 -4178 0
4178 -4179 0
-1527 -4177 0
-1539 -4177 0
1526 -1538 0
-1526 1538 0
1540 -1528 0
1528 -1540 0
1541 -1529 0
1529 -1541 0
-1537 4180 0
-1549 4180 0
-1993 4180 0
-2797 4180 0
1537 1549 1993 2797 -4180 0
4181 -4180 0
-4181 4180 0
-1539 4182 0
-1551 4182 0
-1995 4182 0
-2799 4182 0
-4181 4182 0
1539 1551 1995 2799 4181 -4182 0
4183 -4182 0
4182 -4183 0
-1539 -4181 0
-1551 -4181 0
-1995 -4181 0
-2799 -4181 0
-1538 4184 0
-1550 4184 0
1994 4184 0
2798 4184 0
1538 1550 -1994 -2798 -4184 0
-1538 4185 0
1550 4185 0
-1994 4185 0
2798 4185 0
1538 -1550 1994 -2798 -4185 0
-1538 4186 0
1550 4186 0
1994 4186 0
-2798 4186 0
1538 -1550 -1994 2798 -4186 0
1538 4187 0
-1550 4187 0
-1994 4187 0
2798 4187 0
-1538 1550 1994 -2798 -4187 0
1538 4188 0
-1550 4188 0
1994 4188 0
-2798 4188 0
-1538 1550 -1994 2798 -4188 0
1538 -1550 -4184 -4185 -4186 -4187 -4188 0
1538 -1994 -4184 -4185 -4186 -4187 -4188 0
1538 -2798 -4184 -4185 -4186 -4187 -4188 0
-1538 1550 -4184 -4185 -4186 -4187 -4188 0
1550 -1994 -4184 -4185 -4186 -4187 -4188 0
1550 -2798 -4184 -4185 -4186 -4187 -4188 0
-1538 -1994 -4184 -4185 -4186 -4187 -4188 0
-1550 -1994 -4184 -4185 -4186 -4187 -4188 0
-1994 -4184 -4185 -4186 -4187 -4188 0
-1994 -2798 -4184 -4185 -4186 -4187 -4188 0
-1538 -2798 -4184 -4185 -4186 -4187 -4188 0
-1550 -2798 -4184 -4185 -4186 -4187 -4188 0
-2798 -4184 -4185 -4186 -4187 -4188 0
-1540 4189 0
-1552 4189 0
1996 4189 0
2800 4189 0
1540 1552 -1996 -2800 -4189 0
-1540 4190 0
1552 4190 0
-1996 4190 0
2800 4190 0
1540 -1552 1996 -2800 -4190 0
-1540 4191 0
1552 4191 0
1996 4191 0
-2800 4191 0
1540 -1552 -1996 2800 -4191 0
1540 4192 0
-1552 4192 0
-1996 4192 0
2800 4192 0
-1540 1552 1996 -2800 -4192 0
1540 4193 0
-1552 4193 0
1996 4193 0
-2800 4193 0
-1540 1552 -1996 2800 -4193 0
1540 -1552 -4189 -4190 -4191 -4192 -4193 0
1540 -1996 -4189 -4190 -4191 -4192 -4193 0
1540 -2800 -4189 -4190 -4191 -4192 -4193 0
-1540 1552 -4189 -4190 -4191 -4192 -4193 0
1552 -1996 -4189 -4190 -4191 -4192 -4193 0
1552 -2800 -4189 -4190 -4191 -4192 -4193 0
-1540 -1996 -4189 -4190 -4191 -4192 -4193 0
-1552 -1996 -4189 -4190 -4191 -4192 -4193 0
-1996 -4189 -4190 -4191 -4192 -4193 0
-1996 -2800 -4189 -4190 -4191 -4192 -4193 0
-1540 -2800 -4189 -4190 -4191 -4192 -4193 0
-1552 -2800 -4189 -4190 -4191 -4192 -4193 0
-2800 -4189 -4190 -4191 -4192 -4193 0
-1541 4194 0
-1553 4194 0
1997 4194 0
2801 4194 0
1541 1553 -1997 -2801 -4194 0
-1541 4195 0
1553 4195 0
-1997 4195 0
2801 4195 0
1541 -1553 1997 -2801 -4195 0
-1541 4196 0
1553 4196 0
1997 4196 0
-2801 4196 0
1541 -1553 -1997 2801 -4196 0
1541 4197 0
-1553 4197 0
-1997 4197 0
2801 4197 0
-1541 1553 1997 -2801 -4197 0
1541 4198 0
-1553 4198 0
1997 4198 0
-2801 4198 0
-1541 1553 -1997 2801 -4198 0
1541 -1553 -4194 -4195 -4196 -4197 -4198 0
1541 -1997 -4194 -4195 -4196 -4197 -4198 0
1541 -2801 -4194 -4195 -4196 -4197 -4198 0
-1541 1553 -4194 -4195 -4196 -4197 -4198 0
1553 -1997 -4194 -4195 -4196 -4197 -4198 0
1553 -2801 -4194 -4195 -4196 -4197 -4198 0
-1541 -1997 -4194 -4195 -4196 -4197 -4198 0
-1553 -1997 -4194 -4195 -4196 -4197 -4198 0
-1997 -4194 -4195 -4196 -4197 -4198 0
-1997 -2801 -4194 -4195 -4196 -4197 -4198 0
-1541 -2801 -4194 -4195 -4196 -4197 -4198 0
-1553 -2801 -4194 -4195 -4196 -4197 -4198 0
-2801 -4194 -4195 -4196 -4197 -4198 0
-1549 4199 0
-1561 4199 0
1549 1561 -4199 0
4200 -4199 0
-4200 4199 0
-1551 4201 0
-1563 4201 0
-4200 4201 0
1551 1563 4200 -4201 0
4202 -4201 0
4201 -4202 0
-1551 -4200 0
-1563 -4200 0
1550 -1562 0
-1550 1562 0
1564 -1552 0
1552 -1564 0
1565 -1553 0
1553 -1565 0
-1561 4203 0
-1573 4203 0
-2005 4203 0
-2881 4203 0
1561 1573 2005 2881 -4203 0
4204 -4203 0
-4204 4203 0
-1563 4205 0
-1575 4205 0
-2007 4205 0
-2883 4205 0
-4204 4205 0
1563 1575 2007 2883 4204 -4205 0
4206 -4205 0
4205 -4206 0
-1563 -4204 0
-1575 -4204 0
-2007 -4204 0
-2883 -4204 0
-1562 4207 0
-1574 4207 0
2006 4207 0
2882 4207 0
1562 1574 -2006 -2882 -4207 0
-1562 4208 0
1574 4208 0
-2006 4208 0
2882 4208 0
1562 -1574 2006 -2882 -4208 0
-1562 4209 0
1574 4209 0
2006 4209 0
-2882 4209 0
1562 -1574 -2006 2882 -4209 0
1562 4210 0
-1574 4210 0
-2006 4210 0
2882 4210 0
-1562 1574 2006 -2882 -4210 0
1562 4211 0
-1574 4211 0
2006 4211 0
-2882 4211 0
-1562 1574 -2006 2882 -4211 0
1562 -1574 -4207 -4208 -4209 -4210 -4211 0
1562 -2006 -4207 -4208 -4209 -4210 -4211 0
1562 -2882 -4207 -4208 -4209 -4210 -4211 0
-1562 1574 -4207 -4208 -4209 -4210 -4211 0
1574 -2006 -4207 -4208 -4209 -4210 -4211 0
1574 -2882 -4207 -4208 -4209 -4210 -4211 0
-1562 -2006 -4207 -4208 -4209 -4210 -4211 0
-1574 -2006 -4207 -4208 -4209 -4210 -4211 0
-2006 -4207 -4208 -4209 -4210 -4211 0
-2006 -2882 -4207 -4208 -4209 -4210 -4211 0
-1562 -2882 -4207 -4208 -4209 -4210 -4211 0
-1574 -2882 -4207 -4208 -4209 -4210 -4211 0
-2882 -4207 -4208 -4209 -4210 -4211 0
-1564 4212 0
-1576 4212 0
2008 4212 0
2884 4212 0
1564 1576 -2008 -2884 -4212 0
-1564 4213 0
1576 4213 0
-2008 4213 0
2884 4213 0
1564 -1576 2008 -2884 -4213 0
-1564 4214 0
1576 4214 0
2008 4214 0
-2884 4214 0
1564 -1576 -2008 2884 -4214 0
1564 4215 0
-1576 4215 0
-2008 4215 0
2884 4215 0
-1564 1576 2008 -2884 -4215 0
1564 4216 0
-1576 4216 0
2008 4216 0
-2884 4216 0
-1564 1576 -2008 2884 -4216 0
1564 -1576 -4212 -4213 -4214 -4215 -4216 0
1564 -2008 -4212 -4213 -4214 -4215 -4216 0
1564 -2884 -4212 -4213 -4214 -4215 -4216 0
-1564 1576 -4212 -4213 -4214 -4215 -4216 0
1576 -2008 -4212 -4213 -4214 -4215 -4216 0
1576 -2884 -4212 -4213 -4214 -4215 -4216 0
-1564 -2008 -4212 -4213 -4214 -4215 -4216 0
-1576 -2008 -4212 -4213 -4214 -4215 -4216 0
-2008 -4212 -4213 -4214 -4215 -4216 0
-2008 -2884 -4212 -4213 -4214 -4215 -4216 0
-1564 -2884 -4212 -4213 -4214 -4215 -4216 0
-1576 -2884 -4212 -4213 -4214 -4215 -4216 0
-2884 -4212 -4213 -4214 -4215 -4216 0
-1565 4217 0
-1577 4217 0
2009 4217 0
2885 4217 0
1565 1577 -2009 -2885 -4217 0
-1565 4218 0
1577 4218 0
-2009 4218 0
2885 4218 0
1565 -1577 2009 -2885 -4218 0
-1565 4219 0
1577 4219 0
2009 4219 0
-2885 4219 0
1565 -1577 -2009 2885 -4219 0
1565 4220 0
-1577 4220 0
-2009 4220 0
2885 4220 0
-1565 1577 2009 -2885 -4220 0
1565 4221 0
-1577 4221 0
2009 4221 0
-2885 4221 0
-1565 1577 -2009 2885 -4221 0
1565 -1577 -4217 -4218 -4219 -4220 -4221 0
1565 -2009 -4217 -4218 -4219 -4220 -4221 0
1565 -2885 -4217 -4218 -4219 -4220 -4221 0
-1565 1577 -4217 -4218 -4219 -4220 -4221 0
1577 -2009 -4217 -4218 -4219 -4220 -4221 0
1577 -2885 -4217 -4218 -4219 -4220 -4221 0
-1565 -2009 -4217 -4218 -4219 -4220 -4221 0
-1577 -2009 -4217 -4218 -4219 -4220 -4221 0
-2009 -4217 -4218 -4219 -4220 -4221 0
-2009 -2885 -4217 -4218 -4219 -4220 -4221 0
-1565 -2885 -4217 -4218 -4219 -4220 -4221 0
-1577 -2885 -4217 -4218 -4219 -4220 -4221 0
-2885 -4217 -4218 -4219 -4220 -4221 0
4222 -1573 0
1573 -4222 0
-1575 4223 0
-4222 4223 0
1575 4222 -4223 0
4224 -4223 0
4223 -4224 0
-1575 -4222 0
-1574 0
-1576 0
-1577 0
4225 -1585 0
1585 -4225 0
-1587 4226 0
-4225 4226 0
1587 4225 -4226 0
4227 -4226 0
4226 -4227 0
-1587 -4225 0
-1586 0
-1588 0
-1589 0
-1585 4228 0
-1597 4228 0
-2017 4228 0
-2725 4228 0
1585 1597 2017 2725 -4228 0
4229 -4228 0
-4229 4228 0
-1587 4230 0
-1599 4230 0
-2019 4230 0
-2727 4230 0
-4229 4230 0
1587 1599 2019 2727 4229 -4230 0
4231 -4230 0
4230 -4231 0
-1587 -4229 0
-1599 -4229 0
-2019 -4229 0
-2727 -4229 0
-1586 4232 0
-1598 4232 0
2018 4232 0
2726 4232 0
1586 1598 -2018 -2726 -4232 0
-1586 4233 0
1598 4233 0
-2018 4233 0
2726 4233 0
1586 -1598 2018 -2726 -4233 0
-1586 4234 0
1598 4234 0
2018 4234 0
-2726 4234 0
1586 -1598 -2018 2726 -4234 0
1586 4235 0
-1598 4235 0
-2018 4235 0
2726 4235 0
-1586 1598 2018 -2726 -4235 0
1586 4236 0
-1598 4236 0
2018 4236 0
-2726 4236 0
-1586 1598 -2018 2726 -4236 0
1586 -1598 -4232 -4233 -4234 -4235 -4236 0
1586 -2018 -4232 -4233 -4234 -4235 -4236 0
1586 -2726 -4232 -4233 -4234 -4235 -4236 0
-1586 1598 -4232 -4233 -4234 -4235 -4236 0
1598 -2018 -4232 -4233 -4234 -4235 -4236 0
1598 -2726 -4232 -4233 -4234 -4235 -4236 0
-1586 -2018 -4232 -4233 -4234 -4235 -4236 0
-1598 -2018 -4232 -4233 -4234 -4235 -4236 0
-2018 -4232 -4233 -4234 -4235 -4236 0
-2018 -2726 -4232 -4233 -4234 -4235 -4236 0
-1586 -2726 -4232 -4233 -4234 -4235 -4236 0
-1598 -2726 -4232 -4233 -4234 -4235 -4236 0
-2726 -4232 -4233 -4234 -4235 -4236 0
-1588 4237 0
-1600 4237 0
2020 4237 0
2728 4237 0
1588 1600 -2020 -2728 -4237 0
-1588 4238 0
1600 4238 0
-2020 4238 0
2728 4238 0
1588 -1600 2020 -2728 -4238 0
-1588 4239 0
1600 4239 0
2020 4239 0
-2728 4239 0
1588 -1600 -2020 2728 -4239 0
1588 4240 0
-1600 4240 0
-2020 4240 0
2728 4240 0
-1588 1600 2020 -2728 -4240 0
1588 4241 0
-1600 4241 0
2020 4241 0
-2728 4241 0
-1588 1600 -2020 2728 -4241 0
1588 -1600 -4237 -4238 -4239 -4240 -4241 0
1588 -2020 -4237 -4238 -4239 -4240 -4241 0
1588 -2728 -4237 -4238 -4239 -4240 -4241 0
-1588 1600 -4237 -4238 -4239 -4240 -4241 0
1600 -2020 -4237 -4238 -4239 -4240 -4241 0
1600 -2728 -4237 -4238 -4239 -4240 -4241 0
-1588 -2020 -4237 -4238 -4239 -4240 -4241 0
-1600 -2020 -4237 -4238 -4239 -4240 -4241 0
-2020 -4237 -4238 -4239 -4240 -4241 0
-2020 -2728 -4237 -4238 -4239 -4240 -4241 0
-1588 -2728 -4237 -4238 -4239 -4240 -4241 0
-1600 -2728 -4237 -4238 -4239 -4240 -4241 0
-2728 -4237 -4238 -4239 -4240 -4241 0
-1589 4242 0
-1601 4242 0
2021 4242 0
2729 4242 0
1589 1601 -2021 -2729 -4242 0
-1589 4243 0
1601 4243 0
-2021 4243 0
2729 4243 0
1589 -1601 2021 -2729 -4243 0
-1589 4244 0
1601 4244 0
2021 4244 0
-2729 4244 0
1589 -1601 -2021 2729 -4244 0
1589 4245 0
-1601 4245 0
-2021 4245 0
2729 4245 0
-1589 1601 2021 -2729 -4245 0
1589 4246 0
-1601 4246 0
2021 4246 0
-2729 4246 0
-1589 1601 -2021 2729 -4246 0
1589 -1601 -4242 -4243 -4244 -4245 -4246 0
1589 -2021 -4242 -4243 -4244 -4245 -4246 0
1589 -2729 -4242 -4243 -4244 -4245 -4246 0
-1589 1601 -4242 -4243 -4244 -4245 -4246 0
1601 -2021 -4242 -4243 -4244 -4245 -4246 0
1601 -2729 -4242 -4243 -4244 -4245 -4246 0
-1589 -2021 -4242 -4243 -4244 -4245 -4246 0
-1601 -2021 -4242 -4243 -4244 -4245 -4246 0
-2021 -4242 -4243 -4244 -4245 -4246 0
-2021 -2729 -4242 -4243 -4244 -4245 -4246 0
-1589 -2729 -4242 -4243 -4244 -4245 -4246 0
-1601 -2729 -4242 -4243 -4244 -4245 -4246 0
-2729 -4242 -4243 -4244 -4245 -4246 0
-1597 4247 0
-1609 4247 0
1597 1609 -4247 0
4248 -4247 0
-4248 4247 0
-1599 4249 0
-1611 4249 0
-4248 4249 0
1599 1611 4248 -4249 0
4250 -4249 0
4249 -4250 0
-1599 -4248 0
-1611 -4248 0
1598 -1610 0
-1598 1610 0
1612 -1600 0
1600 -1612 0
1613 -1601 0
1601 -1613 0
-1609 4251 0
-1621 4251 0
-2029 4251 0
-2809 4251 0
1609 1621 2029 2809 -4251 0
4252 -4251 0
-4252 4251 0
-1611 4253 0
-1623 4253 0
-2031 4253 0
-2811 4253 0
-4252 4253 0
1611 1623 2031 2811 4252 -4253 0
4254 -4253 0
4253 -4254 0
-1611 -4252 0
-1623 -4252 0
-2031 -4252 0
-2811 -4252 0
-1610 4255 0
-1622 4255 0
2030 4255 0
2810 4255 0
1610 1622 -2030 -2810 -4255 0
-1610 4256 0
1622 4256 0
-2030 4256 0
2810 4256 0
1610 -1622 2030 -2810 -4256 0
-1610 4257 0
1622 4257 0
2030 4257 0
-2810 4257 0
1610 -1622 -2030 2810 -4257 0
1610 4258 0
-1622 4258 0
-2030 4258 0
2810 4258 0
-1610 1622 2030 -2810 -4258 0
1610 4259 0
-1622 4259 0
2030 4259 0
-2810 4259 0
-1610 1622 -2030 2810 -4259 0
1610 -1622 -4255 -4256 -4257 -4258 -4259 0
1610 -2030 -4255 -4256 -4257 -4258 -4259 0
1610 -2810 -4255 -4256 -4257 -4258 -4259 0
-1610 1622 -4255 -4256 -4257 -4258 -4259 0
1622 -2030 -4255 -4256 -4257 -4258 -4259 0
1622 -2810 -4255 -4256 -4257 -4258 -4259 0
-1610 -2030 -4255 -4256 -4257 -4258 -4259 0
-1622 -2030 -4255 -4256 -4257 -4258 -4259 0
-2030 -4255 -4256 -4257 -4258 -4259 0
-2030 -2810 -4255 -4256 -4257 -4258 -4259 0
-1610 -2810 -4255 -4256 -4257 -4258 -4259 0
-1622 -2810 -4255 -4256 -4257 -4258 -4259 0
-2810 -4255 -4256 -4257 -4258 -4259 0
-1612 4260 0
-1624 4260 0
2032 4260 0
2812 4260 0
1612 1624 -2032 -2812 -4260 0
-1612 4261 0
1624 4261 0
-2032 4261 0
2812 4261 0
1612 -1624 2032 -2812 -4261 0
-1612 4262 0
1624 4262 0
2032 4262 0
-2812 4262 0
1612 -1624 -2032 2812 -4262 0
1612 4263 0
-1624 4263 0
-2032 4263 0
2812 4263 0
-1612 1624 2032 -2812 -4263 0
1612 4264 0
-1624 4264 0
2032 4264 0
-2812 4264 0
-1612 1624 -2032 2812 -4264 0
1612 -1624 -4260 -4261 -4262 -4263 -4264 0
1612 -2032 -4260 -4261 -4262 -4263 -4264 0
1612 -2812 -4260 -4261 -4262 -4263 -4264 0
-1612 1624 -4260 -4261 -4262 -4263 -4264 0
1624 -2032 -4260 -4261 -4262 -4263 -4264 0
1624 -2812 -4260 -4261 -4262 -4263 -4264 0
-1612 -2032 -4260 -4261 -4262 -4263 -4264 0
-1624 -2032 -4260 -4261 -4262 -4263 -4264 0
-2032 -4260 -4261 -4262 -4263 -4264 0
-2032 -2812 -4260 -4261 -4262 -4263 -4264 0
-1612 -2812 -4260 -4261 -4262 -4263 -4264 0
-1624 -2812 -4260 -4261 -4262 -4263 -4264 0
-2812 -4260 -4261 -4262 -4263 -4264 0
-1613 4265 0
-1625 4265 0
2033 4265 0
2813 4265 0
1613 1625 -2033 -2813 -4265 0
-1613 4266 0
1625 4266 0
-2033 4266 0
2813 4266 0
1613 -1625 2033 -2813 -4266 0
-1613 4267 0
1625 4267 0
2033 4267 0
-2813 4267 0
1613 -1625 -2033 2813 -4267 0
1613 4268 0
-1625 4268 0
-2033 4268 0
2813 4268 0
-1613 1625 2033 -2813 -4268 0
1613 4269 0
-1625 4269 0
2033 4269 0
-2813 4269 0
-1613 1625 -2033 2813 -4269 0
1613 -1625 -4265 -4266 -4267 -4268 -4269 0
1613 -2033 -4265 -4266 -4267 -4268 -4269 0
1613 -2813 -4265 -4266 -4267 -4268 -4269 0
-1613 1625 -4265 -4266 -4267 -4268 -4269 0
1625 -2033 -4265 -4266 -4267 -4268 -4269 0
1625 -2813 -4265 -4266 -4267 -4268 -4269 0
-1613 -2033 -4265 -4266 -4267 -4268 -4269 0
-1625 -2033 -4265 -4266 -4267 -4268 -4269 0
-2033 -4265 -4266 -4267 -4268 -4269 0
-2033 -2813 -4265 -4266 -4267 -4268 -4269 0
-1613 -2813 -4265 -4266 -4267 -4268 -4269 0
-1625 -2813 -4265 -4266 -4267 -4268 -4269 0
-2813 -4265 -4266 -4267 -4268 -4269 0
-1621 4270 0
-1633 4270 0
1621 1633 -4270 0
4271 -4270 0
-4271 4270 0
-1623 4272 0
-1635 4272 0
-4271 4272 0
1623 1635 4271 -4272 0
4273 -4272 0
4272 -4273 0
-1623 -4271 0
-1635 -4271 0
1622 -1634 0
-1622 1634 0
1636 -1624 0
1624 -1636 0
1637 -1625 0
1625 -1637 0
-1633 4274 0
-1645 4274 0
-2041 4274 0
-2893 4274 0
1633 1645 2041 2893 -4274 0
4275 -4274 0
-4275 4274 0
-1635 4276 0
-1647 4276 0
-2043 4276 0
-2895 4276 0
-4275 4276 0
1635 1647 2043 2895 4275 -4276 0
4277 -4276 0
4276 -4277 0
-1635 -4275 0
-1647 -4275 0
-2043 -4275 0
-2895 -4275 0
-1634 4278 0
-1646 4278 0
2042 4278 0
2894 4278 0
1634 1646 -2042 -2894 -4278 0
-1634 4279 0
1646 4279 0
-2042 4279 0
2894 4279 0
1634 -1646 2042 -2894 -4279 0
-1634 4280 0
1646 4280 0
2042 4280 0
-2894 4280 0
1634 -1646 -2042 2894 -4280 0
1634 4281 0
-1646 4281 0
-2042 4281 0
2894 4281 0
-1634 1646 2042 -2894 -4281 0
1634 4282 0
-1646 4282 0
2042 4282 0
-2894 4282 0
-1634 1646 -2042 2894 -4282 0
1634 -1646 -4278 -4279 -4280 -4281 -4282 0
1634 -2042 -4278 -4279 -4280 -4281 -4282 0
1634 -2894 -4278 -4279 -4280 -4281 -4282 0
-1634 1646 -4278 -4279 -4280 -4281 -4282 0
1646 -2042 -4278 -4279 -4280 -4281 -4282 0
1646 -2894 -4278 -4279 -4280 -4281 -4282 0
-1634 -2042 -4278 -4279 -4280 -4281 -4282 0
-1646 -2042 -4278 -4279 -4280 -4281 -4282 0
-2042 -4278 -4279 -4280 -4281 -4282 0
-2042 -2894 -4278 -4279 -4280 -4281 -4282 0
-1634 -2894 -4278 -4279 -4280 -4281 -4282 0
-1646 -2894 -4278 -4279 -4280 -4281 -4282 0
-2894 -4278 -4279 -4280 -4281 -4282 0
-1636 4283 0
-1648 4283 0
2044 4283 0
2896 4283 0
1636 1648 -2044 -2896 -4283 0
-1636 4284 0
1648 4284 0
-2044 4284 0
2896 4284 0
1636 -1648 2044 -2896 -4284 0
-1636 4285 0
1648 4285 0
2044 4285 0
-2896 4285 0
1636 -1648 -2044 2896 -4285 0
1636 4286 0
-1648 4286 0
-2044 4286 0
2896 4286 0
-1636 1648 2044 -2896 -4286 0
1636 4287 0
-1648 4287 0
2044 4287 0
-2896 4287 0
-1636 1648 -2044 2896 -4287 0
1636 -1648 -4283 -4284 -4285 -4286 -4287 0
1636 -2044 -4283 -4284 -4285 -4286 -4287 0
1636 -2896 -4283 -4284 -4285 -4286 -4287 0
-1636 1648 -4283 -4284 -4285 -4286 -4287 0
1648 -2044 -4283 -4284 -4285 -4286 -4287 0
1648 -2896 -4283 -4284 -4285 -4286 -4287 0
-1636 -2044 -4283 -4284 -4285 -4286 -4287 0
-1648 -2044 -4283 -4284 -4285 -4286 -4287 0
-2044 -4283 -4284 -4285 -4286 -4287 0
-2044 -2896 -4283 -4284 -4285 -4286 -4287 0
-1636 -2896 -4283 -4284 -4285 -4286 -4287 0
-1648 -2896 -4283 -4284 -4285 -4286 -4287 0
-2896 -4283 -4284 -4285 -4286 -4287 0
-1637 4288 0
-1649 4288 0
2045 4288 0
2897 4288 0
1637 1649 -2045 -2897 -4288 0
-1637 4289 0
1649 4289 0
-2045 4289 0
2897 4289 0
1637 -1649 2045 -2897 -4289 0
-1637 4290 0
1649 4290 0
2045 4290 0
-2897 4290 0
1637 -1649 -2045 2897 -4290 0
1637 4291 0
-1649 4291 0
-2045 4291 0
2897 4291 0
-1637 1649 2045 -2897 -4291 0
1637 4292 0
-1649 4292 0
2045 4292 0
-2897 4292 0
-1637 1649 -2045 2897 -4292 0
1637 -1649 -4288 -4289 -4290 -4291 -4292 0
1637 -2045 -4288 -4289 -4290 -4291 -4292 0
1637 -2897 -4288 -4289 -4290 -4291 -4292 0
-1637 1649 -4288 -4289 -4290 -4291 -4292 0
1649 -2045 -4288 -4289 -4290 -4291 -4292 0
1649 -2897 -4288 -4289 -4290 -4291 -4292 0
-1637 -2045 -4288 -4289 -4290 -4291 -4292 0
-1649 -2045 -4288 -4289 -4290 -4291 -4292 0
-2045 -4288 -4289 -4290 -4291 -4292 0
-2045 -2897 -4288 -4289 -4290 -4291 -4292 0
-1637 -2897 -4288 -4289 -4290 -4291 -4292 0
-1649 -2897 -4288 -4289 -4290 -4291 -4292 0
-2897 -4288 -4289 -4290 -4291 -4292 0
4293 -1645 0
1645 -4293 0
-1647 4294 0
-4293 4294 0
1647 4293 -4294 0
4295 -4294 0
4294 -4295 0
-1647 -4293 0
-1646 0
-1648 0
-1649 0
4296 -1657 0
1657 -4296 0
-1659 4297 0
-4296 4297 0
1659 4296 -4297 0
4298 -4297 0
4297 -4298 0
-1659 -4296 0
-1658 0
-1660 0
-1661 0
-1657 4299 0
-1669 4299 0
-2053 4299 0
-2737 4299 0
1657 1669 2053 2737 -4299 0
4300 -4299 0
-4300 4299 0
-1659 4301 0
-1671 4301 0
-2055 4301 0
-2739 4301 0
-4300 4301 0
1659 1671 2055 2739 4300 -4301 0
4302 -4301 0
4301 -4302 0
-1659 -4300 0
-1671 -4300 0
-2055 -4300 0
-2739 -4300 0
-1658 4303 0
-1670 4303 0
2054 4303 0
2738 4303 0
1658 1670 -2054 -2738 -4303 0
-1658 4304 0
1670 4304 0
-2054 4304 0
2738 4304 0
1658 -1670 2054 -2738 -4304 0
-1658 4305 0
1670 4305 0
2054 4305 0
-2738 4305 0
1658 -1670 -2054 2738 -4305 0
1658 4306 0
-1670 4306 0
-2054 4306 0
2738 4306 0
-1658 1670 2054 -2738 -4306 0
1658 4307 0
-1670 4307 0
2054 4307 0
-2738 4307 0
-1658 1670 -2054 2738 -4307 0
1658 -1670 -4303 -4304 -4305 -4306 -4307 0
1658 -2054 -4303 -4304 -4305 -4306 -4307 0
1658 -2738 -4303 -4304 -4305 -4306 -4307 0
-1658 1670 -4303 -4304 -4305 -4306 -4307 0
1670 -2054 -4303 -4304 -4305 -4306 -4307 0
1670 -2738 -4303 -4304 -4305 -4306 -4307 0
-1658 -2054 -4303 -4304 -4305 -4306 -4307 0
-1670 -2054 -4303 -4304 -4305 -4306 -4307 0
-2054 -4303 -4304 -4305 -4306 -4307 0
-2054 -2738 -4303 -4304 -4305 -4306 -4307 0
-1658 -2738 -4303 -4304 -4305 -4306 -4307 0
-1670 -2738 -4303 -4304 -4305 -4306 -4307 0
-2738 -4303 -4304 -4305 -4306 -4307 0
-1660 4308 0
-1672 4308 0
2056 4308 0
2740 4308 0
1660 1672 -2056 -2740 -4308 0
-1660 4309 0
1672 4309 0
-2056 4309 0
2740 4309 0
1660 -1672 2056 -2740 -4309 0
-1660 4310 0
1672 4310 0
2056 4310 0
-2740 4310 0
1660 -1672 -2056 2740 -4310 0
1660 4311 0
-1672 4311 0
-2056 4311 0
2740 4311 0
-1660 1672 2056 -2740 -4311 0
1660 4312 0
-1672 4312 0
2056 4312 0
-2740 4312 0
-1660 1672 -2056 2740 -4312 0
1660 -1672 -4308 -4309 -4310 -4311 -4312 0
1660 -2056 -4308 -4309 -4310 -4311 -4312 0
1660 -2740 -4308 -4309 -4310 -4311 -4312 0
-1660 1672 -4308 -4309 -4310 -4311 -4312 0
1672 -2056 -4308 -4309 -4310 -4311 -4312 0
1672 -2740 -4308 -4309 -4310 -4311 -4312 0
-1660 -2056 -4308 -4309 -4310 -4311 -4312 0
-1672 -2056 -4308 -4309 -4310 -4311 -4312 0
-2056 -4308 -4309 -4310 -4311 -4312 0
-2056 -2740 -4308 -4309 -4310 -4311 -4312 0
-1660 -2740 -4308 -4309 -4310 -4311 -4312 0
-1672 -2740 -4308 -4309 -4310 -4311 -4312 0
-2740 -4308 -4309 -4310 -4311 -4312 0
-1661 4313 0
-1673 4313 0
2057 4313 0
2741 4313 0
1661 1673 -2057 -2741 -4313 0
-1661 4314 0
1673 4314 0
-2057 4314 0
2741 4314 0
1661 -1673 2057 -2741 -4314 0
-1661 4315 0
1673 4315 0
2057 4315 0
-2741 4315 0
1661 -1673 -2057 2741 -4315 0
1661 4316 0
-1673 4316 0
-2057 4316 0
2741 4316 0
-1661 1673 2057 -2741 -4316 0
1661 4317 0
-1673 4317 0
2057 4317 0
-2741 4317 0
-1661 1673 -2057 2741 -4317 0
1661 -1673 -4313 -4314 -4315 -4316 -4317 0
1661 -2057 -4313 -4314 -4315 -4316 -4317 0
1661 -2741 -4313 -4314 -4315 -4316 -4317 0
-1661 1673 -4313 -4314 -4315 -4316 -4317 0
1673 -2057 -4313 -4314 -4315 -4316 -4317 0
1673 -2741 -4313 -4314 -4315 -4316 -4317 0
-1661 -2057 -4313 -4314 -4315 -4316 -4317 0
-1673 -2057 -4313 -4314 -4315 -4316 -4317 0
-2057 -4313 -4314 -4315 -4316 -4317 0
-2057 -2741 -4313 -4314 -4315 -4316 -4317 0
-1661 -2741 -4313 -4314 -4315 -4316 -4317 0
-1673 -2741 -4313 -4314 -4315 -4316 -4317 0
-2741 -4313 -4314 -4315 -4316 -4317 0
-1669 4318 0
-1681 4318 0
1669 1681 -4318 0
4319 -4318 0
-4319 4318 0
-1671 4320 0
-1683 4320 0
-4319 4320 0
1671 1683 4319 -4320 0
4321 -4320 0
4320 -4321 0
-1671 -4319 0
-1683 -4319 0
1670 -1682 0
-1670 1682 0
1684 -1672 0
1672 -1684 0
1685 -1673 0
1673 -1685 0
-1681 4322 0
-1693 4322 0
-2065 4322 0
-2821 4322 0
1681 1693 2065 2821 -4322 0
4323 -4322 0
-4323 4322 0
-1683 4324 0
-1695 4324 0
-2067 4324 0
-2823 4324 0
-4323 4324 0
1683 1695 2067 2823 4323 -4324 0
4325 -4324 0
4324 -4325 0
-1683 -4323 0
-1695 -4323 0
-2067 -4323 0
-2823 -4323 0
-1682 4326 0
-1694 4326 0
2066 4326 0
2822 4326 0
1682 1694 -2066 -2822 -4326 0
-1682 4327 0
1694 4327 0
-2066 4327 0
2822 4327 0
1682 -1694 2066 -2822 -4327 0
-1682 4328 0
1694 4328 0
2066 4328 0
-2822 4328 0
1682 -1694 -2066 2822 -4328 0
1682 4329 0
-1694 4329 0
-2066 4329 0
2822 4329 0
-1682 1694 2066 -2822 -4329 0
1682 4330 0
-1694 4330 0
2066 4330 0
-2822 4330 0
-1682 1694 -2066 2822 -4330 0
1682 -1694 -4326 -4327 -4328 -4329 -4330 0
1682 -2066 -4326 -4327 -4328 -4329 -4330 0
1682 -2822 -4326 -4327 -4328 -4329 -4330 0
-1682 1694 -4326 -4327 -4328 -4329 -4330 0
1694 -2066 -4326 -4327 -4328 -4329 -4330 0
1694 -2822 -4326 -4327 -4328 -4329 -4330 0
-1682 -2066 -4326 -4327 -4328 -4329 -4330 0
-1694 -2066 -4326 -4327 -4328 -4329 -4330 0
-2066 -4326 -4327 -4328 -4329 -4330 0
-2066 -2822 -4326 -4327 -4328 -4329 -4330 0
-1682 -2822 -4326 -4327 -4328 -4329 -4330 0
-1694 -2822 -4326 -4327 -4328 -4329 -4330 0
-2822 -4326 -4327 -4328 -4329 -4330 0
-1684 4331 0
-1696 4331 0
2068 4331 0
2824 4331 0
1684 1696 -2068 -2824 -4331 0
-1684 4332 0
1696 4332 0
-2068 4332 0
2824 4332 0
1684 -1696 2068 -2824 -4332 0
-1684 4333 0
1696 4333 0
2068 4333 0
-2824 4333 0
1684 -1696 -2068 2824 -4333 0
1684 4334 0
-1696 4334 0
-2068 4334 0
2824 4334 0
-1684 1696 2068 -2824 -4334 0
1684 4335 0
-1696 4335 0
2068 4335 0
-2824 4335 0
-1684 1696 -2068 2824 -4335 0
1684 -1696 -4331 -4332 -4333 -4334 -4335 0
1684 -2068 -4331 -4332 -4333 -4334 -4335 0
1684 -2824 -4331 -4332 -4333 -4334 -4335 0
-1684 1696 -4331 -4332 -4333 -4334 -4335 0
1696 -2068 -4331 -4332 -4333 -4334 -4335 0
1696 -2824 -4331 -4332 -4333 -4334 -4335 0
-1684 -2068 -4331 -4332 -4333 -4334 -4335 0
-1696 -2068 -4331 -4332 -4333 -4334 -4335 0
-2068 -4331 -4332 -4333 -4334 -4335 0
-2068 -2824 -4331 -4332 -4333 -4334 -4335 0
-1684 -2824 -4331 -4332 -4333 -4334 -4335 0
-1696 -2824 -4331 -4332 -4333 -4334 -4335 0
-2824 -4331 -4332 -4333 -4334 -4335 0
-1685 4336 0
-1697 4336 0
2069 4336 0
2825 4336 0
1685 1697 -2069 -2825 -4336 0
-1685 4337 0
1697 4337 0
-2069 4337 0
2825 4337 0
1685 -1697 2069 -2825 -4337 0
-1685 4338 0
1697 4338 0
2069 4338 0
-2825 4338 0
1685 -1697 -2069 2825 -4338 0
1685 4339 0
-1697 4339 0
-2069 4339 0
2825 4339 0
-1685 1697 2069 -2825 -4339 0
1685 4340 0
-1697 4340 0
2069 4340 0
-2825 4340 0
-1685 1697 -2069 2825 -4340 0
1685 -1697 -4336 -4337 -4338 -4339 -4340 0
1685 -2069 -4336 -4337 -4338 -4339 -4340 0
1685 -2825 -4336 -4337 -4338 -4339 -4340 0
-1685 1697 -4336 -4337 -4338 -4339 -4340 0
1697 -2069 -4336 -4337 -4338 -4339 -4340 0
1697 -2825 -4336 -4337 -4338 -4339 -4340 0
-1685 -2069 -4336 -4337 -4338 -4339 -4340 0
-1697 -2069 -4336 -4337 -4338 -4339 -4340 0
-2069 -4336 -4337 -4338 -4339 -4340 0
-2069 -2825 -4336 -4337 -4338 -4339 -4340 0
-1685 -2825 -4336 -4337 -4338 -4339 -4340 0
-1697 -2825 -4336 -4337 -4338 -4339 -4340 0
-2825 -4336 -4337 -4338 -4339 -4340 0
-1693 4341 0
-1705 4341 0
1693 1705 -4341 0
4342 -4341 0
-4342 4341 0
-1695 4343 0
-1707 4343 0
-4342 4343 0
1695 1707 4342 -4343 0
4344 -4343 0
4343 -4344 0
-1695 -4342 0
-1707 -4342 0
1694 -1706 0
-1694 1706 0
1708 -1696 0
1696 -1708 0
1709 -1697 0
1697 -1709 0
-1705 4345 0
-1717 4345 0
-2077 4345 0
-2905 4345 0
1705 1717 2077 2905 -4345 0
4346 -4345 0
-4346 4345 0
-1707 4347 0
-1719 4347 0
-2079 4347 0
-2907 4347 0
-4346 4347 0
1707 1719 2079 2907 4346 -4347 0
4348 -4347 0
4347 -4348 0
-1707 -4346 0
-1719 -4346 0
-2079 -4346 0
-2907 -4346 0
-1706 4349 0
-1718 4349 0
2078 4349 0
2906 4349 0
1706 1718 -2078 -2906 -4349 0
-1706 4350 0
1718 4350 0
-2078 4350 0
2906 4350 0
1706 -1718 2078 -2906 -4350 0
-1706 4351 0
1718 4351 0
2078 4351 0
-2906 4351 0
1706 -1718 -2078 2906 -4351 0
1706 4352 0
-1718 4352 0
-2078 4352 0
2906 4352 0
-1706 1718 2078 -2906 -4352 0
1706 4353 0
-1718 4353 0
2078 4353 0
-2906 4353 0
-1706 1718 -2078 2906 -4353 0
1706 -1718 -4349 -4350 -4351 -4352 -4353 0
1706 -2078 -4349 -4350 -4351 -4352 -4353 0
1706 -2906 -4349 -4350 -4351 -4352 -4353 0
-1706 1718 -4349 -4350 -4351 -4352 -4353 0
1718 -2078 -4349 -4350 -4351 -4352 -4353 0
1718 -2906 -4349 -4350 -4351 -4352 -4353 0
-1706 -2078 -4349 -4350 -4351 -4352 -4353 0
-1718 -2078 -4349 -4350 -4351 -4352 -4353 0
-2078 -4349 -4350 -4351 -4352 -4353 0
-2078 -2906 -4349 -4350 -4351 -4352 -4353 0
-1706 -2906 -4349 -4350 -4351 -4352 -4353 0
-1718 -2906 -4349 -4350 -4351 -4352 -4353 0
-2906 -4349 -4350 -4351 -4352 -4353 0
-1708 4354 0
-1720 4354 0
2080 4354 0
2908 4354 0
1708 1720 -2080 -2908 -4354 0
-1708 4355 0
1720 4355 0
-2080 4355 0
2908 4355 0
1708 -1720 2080 -2908 -4355 0
-1708 4356 0
1720 4356 0
2080 4356 0
-2908 4356 0
1708 -1720 -2080 2908 -4356 0
1708 4357 0
-1720 4357 0
-2080 4357 0
2908 4357 0
-1708 1720 2080 -2908 -4357 0
1708 4358 0
-1720 4358 0
2080 4358 0
-2908 4358 0
-1708 1720 -2080 2908 -4358 0
1708 -1720 -4354 -4355 -4356 -4357 -4358 0
1708 -2080 -4354 -4355 -4356 -4357 -4358 0
1708 -2908 -4354 -4355 -4356 -4357 -4358 0
-1708 1720 -4354 -4355 -4356 -4357 -4358 0
1720 -2080 -4354 -4355 -4356 -4357 -4358 0
1720 -2908 -4354 -4355 -4356 -4357 -4358 0
-1708 -2080 -4354 -4355 -4356 -4357 -4358 0
-1720 -2080 -4354 -4355 -4356 -4357 -4358 0
-2080 -4354 -4355 -4356 -4357 -4358 0
-2080 -2908 -4354 -4355 -4356 -4357 -4358 0
-1708 -2908 -4354 -4355 -4356 -4357 -4358 0
-1720 -2908 -4354 -4355 -4356 -4357 -4358 0
-2908 -4354 -4355 -4356 -4357 -4358 0
-1709 4359 0
-1721 4359 0
2081 4359 0
2909 4359 0
1709 1721 -2081 -2909 -4359 0
-1709 4360 0
1721 4360 0
-2081 4360 0
2909 4360 0
1709 -1721 2081 -2909 -4360 0
-1709 4361 0
1721 4361 0
2081 4361 0
-2909 4361 0
1709 -1721 -2081 2909 -4361 0
1709 4362 0
-1721 4362 0
-2081 4362 0
2909 4362 0
-1709 1721 2081 -2909 -4362 0
1709 4363 0
-1721 4363 0
2081 4363 0
-2909 4363 0
-1709 1721 -2081 2909 -4363 0
1709 -1721 -4359 -4360 -4361 -4362 -4363 0
1709 -2081 -4359 -4360 -4361 -4362 -4363 0
1709 -2909 -4359 -4360 -4361 -4362 -4363 0
-1709 1721 -4359 -4360 -4361 -4362 -4363 0
1721 -2081 -4359 -4360 -4361 -4362 -4363 0
1721 -2909 -4359 -4360 -4361 -4362 -4363 0
-1709 -2081 -4359 -4360 -4361 -4362 -4363 0
-1721 -2081 -4359 -4360 -4361 -4362 -4363 0
-2081 -4359 -4360 -4361 -4362 -4363 0
-2081 -2909 -4359 -4360 -4361 -4362 -4363 0
-1709 -2909 -4359 -4360 -4361 -4362 -4363 0
-1721 -2909 -4359 -4360 -4361 -4362 -4363 0
-2909 -4359 -4360 -4361 -4362 -4363 0
4364 -1717 0
1717 -4364 0
-1719 4365 0
-4364 4365 0
1719 4364 -4365 0
4366 -4365 0
4365 -4366 0
-1719 -4364 0
-1718 0
-1720 0
-1721 0
4367 -1729 0
1729 -4367 0
-1731 4368 0
-4367 4368 0
1731 4367 -4368 0
4369 -4368 0
4368 -4369 0
-1731 -4367 0
-1730 0
-1732 0
-1733 0
-1729 4370 0
-1741 4370 0
-2089 4370 0
-2749 4370 0
1729 1741 2089 2749 -4370 0
4371 -4370 0
-4371 4370 0
-1731 4372 0
-1743 4372 0
-2091 4372 0
-2751 4372 0
-4371 4372 0
1731 1743 2091 2751 4371 -4372 0
4373 -4372 0
4372 -4373 0
-1731 -4371 0
-1743 -4371 0
-2091 -4371 0
-2751 -4371 0
-1730 4374 0
-1742 4374 0
2090 4374 0
2750 4374 0
1730 1742 -2090 -2750 -4374 0
-1730 4375 0
1742 4375 0
-2090 4375 0
2750 4375 0
1730 -1742 2090 -2750 -4375 0
-1730 4376 0
1742 4376 0
2090 4376 0
-2750 4376 0
1730 -1742 -2090 2750 -4376 0
1730 4377 0
-1742 4377 0
-2090 4377 0
2750 4377 0
-1730 1742 2090 -2750 -4377 0
1730 4378 0
-1742 4378 0
2090 4378 0
-2750 4378 0
-1730 1742 -2090 2750 -4378 0
1730 -1742 -4374 -4375 -4376 -4377 -4378 0
1730 -2090 -4374 -4375 -4376 -4377 -4378 0
1730 -2750 -4374 -4375 -4376 -4377 -4378 0
-1730 1742 -4374 -4375 -4376 -4377 -4378 0
1742 -2090 -4374 -4375 -4376 -4377 -4378 0
1742 -2750 -4374 -4375 -4376 -4377 -4378 0
-1730 -2090 -4374 -4375 -4376 -4377 -4378 0
-1742 -2090 -4374 -4375 -4376 -4377 -4378 0
-2090 -4374 -4375 -4376 -4377 -4378 0
-2090 -2750 -4374 -4375 -4376 -4377 -4378 0
-1730 -2750 -4374 -4375 -4376 -4377 -4378 0
-1742 -2750 -4374 -4375 -4376 -4377 -4378 0
-2750 -4374 -4375 -4376 -4377 -4378 0
-1732 4379 0
-1744 4379 0
2092 4379 0
2752 4379 0
1732 1744 -2092 -2752 -4379 0
-1732 4380 0
1744 4380 0
-2092 4380 0
2752 4380 0
1732 -1744 2092 -2752 -4380 0
-1732 4381 0
1744 4381 0
2092 4381 0
-2752 4381 0
1732 -1744 -2092 2752 -4381 0
1732 4382 0
-1744 4382 0
-2092 4382 0
2752 4382 0
-1732 1744 2092 -2752 -4382 0
1732 4383 0
-1744 4383 0
2092 4383 0
-2752 4383 0
-1732 1744 -2092 2752 -4383 0
1732 -1744 -4379 -4380 -4381 -4382 -4383 0
1732 -2092 -4379 -4380 -4381 -4382 -4383 0
1732 -2752 -4379 -4380 -4381 -4382 -4383 0
-1732 1744 -4379 -4380 -4381 -4382 -4383 0
1744 -2092 -4379 -4380 -4381 -4382 -4383 0
1744 -2752 -4379 -4380 -4381 -4382 -4383 0
-1732 -2092 -4379 -4380 -4381 -4382 -4383 0
-1744 -2092 -4379 -4380 -4381 -4382 -4383 0
-2092 -4379 -4380 -4381 -4382 -4383 0
-2092 -2752 -4379 -4380 -4381 -4382 -4383 0
-1732 -2752 -4379 -4380 -4381 -4382 -4383 0
-1744 -2752 -4379 -4380 -4381 -4382 -4383 0
-2752 -4379 -4380 -4381 -4382 -4383 0
-1733 4384 0
-1745 4384 0
2093 4384 0
2753 4384 0
1733 1745 -2093 -2753 -4384 0
-1733 4385 0
1745 4385 0
-2093 4385 0
2753 4385 0
1733 -1745 2093 -2753 -4385 0
-1733 4386 0
1745 4386 0
2093 4386 0
-2753 4386 0
1733 -1745 -2093 2753 -4386 0
1733 4387 0
-1745 4387 0
-2093 4387 0
2753 4387 0
-1733 1745 2093 -2753 -4387 0
1733 4388 0
-1745 4388 0
2093 4388 0
-2753 4388 0
-1733 1745 -2093 2753 -4388 0
1733 -1745 -4384 -4385 -4386 -4387 -4388 0
1733 -2093 -4384 -4385 -4386 -4387 -4388 0
1733 -2753 -4384 -4385 -4386 -4387 -4388 0
-1733 1745 -4384 -4385 -4386 -4387 -4388 0
1745 -2093 -4384 -4385 -4386 -4387 -4388 0
1745 -2753 -4384 -4385 -4386 -4387 -4388 0
-1733 -2093 -4384 -4385 -4386 -4387 -4388 0
-1745 -2093 -4384 -4385 -4386 -4387 -4388 0
-2093 -4384 -4385 -4386 -4387 -4388 0
-2093 -2753 -4384 -4385 -4386 -4387 -4388 0
-1733 -2753 -4384 -4385 -4386 -4387 -4388 0
-1745 -2753 -4384 -4385 -4386 -4387 -4388 0
-2753 -4384 -4385 -4386 -4387 -4388 0
-1741 4389 0
-1753 4389 0
1741 1753 -4389 0
4390 -4389 0
-4390 4389 0
-1743 4391 0
-1755 4391 0
-4390 4391 0
1743 1755 4390 -4391 0
4392 -4391 0
4391 -4392 0
-1743 -4390 0
-1755 -4390 0
1742 -1754 0
-1742 1754 0
1756 -1744 0
1744 -1756 0
1757 -1745 0
1745 -1757 0
-1753 4393 0
-1765 4393 0
-2101 4393 0
-2833 4393 0
1753 1765 2101 2833 -4393 0
4394 -4393 0
-4394 4393 0
-1755 4395 0
-1767 4395 0
-2103 4395 0
-2835 4395 0
-4394 4395 0
1755 1767 2103 2835 4394 -4395 0
4396 -4395 0
4395 -4396 0
-1755 -4394 0
-1767 -4394 0
-2103 -4394 0
-2835 -4394 0
-1754 4397 0
-1766 4397 0
2102 4397 0
2834 4397 0
1754 1766 -2102 -2834 -4397 0
-1754 4398 0
1766 4398 0
-2102 4398 0
2834 4398 0
1754 -1766 2102 -2834 -4398 0
-1754 4399 0
1766 4399 0
2102 4399 0
-2834 4399 0
1754 -1766 -2102 2834 -4399 0
1754 4400 0
-1766 4400 0
-2102 4400 0
2834 4400 0
-1754 1766 2102 -2834 -4400 0
1754 4401 0
-1766 4401 0
2102 4401 0
-2834 4401 0
-1754 1766 -2102 2834 -4401 0
1754 -1766 -4397 -4398 -4399 -4400 -4401 0
1754 -2102 -4397 -4398 -4399 -4400 -4401 0
1754 -2834 -4397 -4398 -4399 -4400 -4401 0
-1754 1766 -4397 -4398 -4399 -4400 -4401 0
1766 -2102 -4397 -4398 -4399 -4400 -4401 0
1766 -2834 -4397 -4398 -4399 -4400 -4401 0
-1754 -2102 -4397 -4398 -4399 -4400 -4401 0
-1766 -2102 -4397 -4398 -4399 -4400 -4401 0
-2102 -4397 -4398 -4399 -4400 -4401 0
-2102 -2834 -4397 -4398 -4399 -4400 -4401 0
-1754 -2834 -4397 -4398 -4399 -4400 -4401 0
-1766 -2834 -4397 -4398 -4399 -4400 -4401 0
-2834 -4397 -4398 -4399 -4400 -4401 0
-1756 4402 0
-1768 4402 0
2104 4402 0
2836 4402 0
1756 1768 -2104 -2836 -4402 0
-1756 4403 0
1768 4403 0
-2104 4403 0
2836 4403 0
1756 -1768 2104 -2836 -4403 0
-1756 4404 0
1768 4404 0
2104 4404 0
-2836 4404 0
1756 -1768 -2104 2836 -4404 0
1756 4405 0
-1768 4405 0
-2104 4405 0
2836 4405 0
-1756 1768 2104 -2836 -4405 0
1756 4406 0
-1768 4406 0
2104 4406 0
-2836 4406 0
-1756 1768 -2104 2836 -4406 0
1756 -1768 -4402 -4403 -4404 -4405 -4406 0
1756 -2104 -4402 -4403 -4404 -4405 -4406 0
1756 -2836 -4402 -4403 -4404 -4405 -4406 0
-1756 1768 -4402 -4403 -4404 -4405 -4406 0
1768 -2104 -4402 -4403 -4404 -4405 -4406 0
1768 -2836 -4402 -4403 -4404 -4405 -4406 0
-1756 -2104 -4402 -4403 -4404 -4405 -4406 0
-1768 -2104 -4402 -4403 -4404 -4405 -4406 0
-2104 -4402 -4403 -4404 -4405 -4406 0
-2104 -2836 -4402 -4403 -4404 -4405 -4406 0
-1756 -2836 -4402 -4403 -4404 -4405 -4406 0
-1768 -2836 -4402 -4403 -4404 -4405 -4406 0
-2836 -4402 -4403 -4404 -4405 -4406 0
-1757 4407 0
-1769 4407 0
2105 4407 0
2837 4407 0
1757 1769 -2105 -2837 -4407 0
-1757 4408 0
1769 4408 0
-2105 4408 0
2837 4408 0
1757 -1769 2105 -2837 -4408 0
-1757 4409 0
1769 4409 0
2105 4409 0
-2837 4409 0
1757 -1769 -2105 2837 -4409 0
1757 4410 0
-1769 4410 0
-2105 4410 0
2837 4410 0
-1757 1769 2105 -2837 -4410 0
1757 4411 0
-1769 4411 0
2105 4411 0
-2837 4411 0
-1757 1769 -2105 2837 -4411 0
1757 -1769 -4407 -4408 -4409 -4410 -4411 0
1757 -2105 -4407 -4408 -4409 -4410 -4411 0
1757 -2837 -4407 -4408 -4409 -4410 -4411 0
-1757 1769 -4407 -4408 -4409 -4410 -4411 0
1769 -2105 -4407 -4408 -4409 -4410 -4411 0
1769 -2837 -4407 -4408 -4409 -4410 -4411 0
-1757 -2105 -4407 -4408 -4409 -4410 -4411 0
-1769 -2105 -4407 -4408 -4409 -4410 -4411 0
-2105 -4407 -4408 -4409 -4410 -4411 0
-2105 -2837 -4407 -4408 -4409 -4410 -4411 0
-1757 -2837 -4407 -4408 -4409 -4410 -4411 0
-1769 -2837 -4407 -4408 -4409 -4410 -4411 0
-2837 -4407 -4408 -4409 -4410 -4411 0
-1765 4412 0
-1777 4412 0
1765 1777 -4412 0
4413 -4412 0
-4413 4412 0
-1767 4414 0
-1779 4414 0
-4413 4414 0
1767 1779 4413 -4414 0
4415 -4414 0
4414 -4415 0
-1767 -4413 0
-1779 -4413 0
1766 -1778 0
-1766 1778 0
1780 -1768 0
1768 -1780 0
1781 -1769 0
1769 -1781 0
-1777 4416 0
-1789 4416 0
-2113 4416 0
-2917 4416 0
1777 1789 2113 2917 -4416 0
4417 -4416 0
-4417 4416 0
-1779 4418 0
-1791 4418 0
-2115 4418 0
-2919 4418 0
-4417 4418 0
1779 1791 2115 2919 4417 -4418 0
4419 -4418 0
4418 -4419 0
-1779 -4417 0
-1791 -4417 0
-2115 -4417 0
-2919 -4417 0
-1778 4420 0
-1790 4420 0
2114 4420 0
2918 4420 0
1778 1790 -2114 -2918 -4420 0
-1778 4421 0
1790 4421 0
-2114 4421 0
2918 4421 0
1778 -1790 2114 -2918 -4421 0
-1778 4422 0
1790 4422 0
2114 4422 0
-2918 4422 0
1778 -1790 -2114 2918 -4422 0
1778 4423 0
-1790 4423 0
-2114 4423 0
2918 4423 0
-1778 1790 2114 -2918 -4423 0
1778 4424 0
-1790 4424 0
2114 4424 0
-2918 4424 0
-1778 1790 -2114 2918 -4424 0
1778 -1790 -4420 -4421 -4422 -4423 -4424 0
1778 -2114 -4420 -4421 -4422 -4423 -4424 0
1778 -2918 -4420 -4421 -4422 -4423 -4424 0
-1778 1790 -4420 -4421 -4422 -4423 -4424 0
1790 -2114 -4420 -4421 -4422 -4423 -4424 0
1790 -2918 -4420 -4421 -4422 -4423 -4424 0
-1778 -2114 -4420 -4421 -4422 -4423 -4424 0
-1790 -2114 -4420 -4421 -4422 -4423 -4424 0
-2114 -4420 -4421 -4422 -4423 -4424 0
-2114 -2918 -4420 -4421 -4422 -4423 -4424 0
-1778 -2918 -4420 -4421 -4422 -4423 -4424 0
-1790 -2918 -4420 -4421 -4422 -4423 -4424 0
-2918 -4420 -4421 -4422 -4423 -4424 0
-1780 4425 0
-1792 4425 0
2116 4425 0
2920 4425 0
1780 1792 -2116 -2920 -4425 0
-1780 4426 0
1792 4426 0
-2116 4426 0
2920 4426 0
1780 -1792 2116 -2920 -4426 0
-1780 4427 0
1792 4427 0
2116 4427 0
-2920 4427 0
1780 -1792 -2116 2920 -4427 0
1780 4428 0
-1792 4428 0
-2116 4428 0
2920 4428 0
-1780 1792 2116 -2920 -4428 0
1780 4429 0
-1792 4429 0
2116 4429 0
-2920 4429 0
-1780 1792 -2116 2920 -4429 0
1780 -1792 -4425 -4426 -4427 -4428 -4429 0
1780 -2116 -4425 -4426 -4427 -4428 -4429 0
1780 -2920 -4425 -4426 -4427 -4428 -4429 0
-1780 1792 -4425 -4426 -4427 -4428 -4429 0
1792 -2116 -4425 -4426 -4427 -4428 -4429 0
1792 -2920 -4425 -4426 -4427 -4428 -4429 0
-1780 -2116 -4425 -4426 -4427 -4428 -4429 0
-1792 -2116 -4425 -4426 -4427 -4428 -4429 0
-2116 -4425 -4426 -4427 -4428 -4429 0
-2116 -2920 -4425 -4426 -4427 -4428 -4429 0
-1780 -2920 -4425 -4426 -4427 -4428 -4429 0
-1792 -2920 -4425 -4426 -4427 -4428 -4429 0
-2920 -4425 -4426 -4427 -4428 -4429 0
-1781 4430 0
-1793 4430 0
2117 4430 0
2921 4430 0
1781 1793 -2117 -2921 -4430 0
-1781 4431 0
1793 4431 0
-2117 4431 0
2921 4431 0
1781 -1793 2117 -2921 -4431 0
-1781 4432 0
1793 4432 0
2117 4432 0
-2921 4432 0
1781 -1793 -2117 2921 -4432 0
1781 4433 0
-1793 4433 0
-2117 4433 0
2921 4433 0
-1781 1793 2117 -2921 -4433 0
1781 4434 0
-1793 4434 0
2117 4434 0
-2921 4434 0
-1781 1793 -2117 2921 -4434 0
1781 -1793 -4430 -4431 -4432 -4433 -4434 0
1781 -2117 -4430 -4431 -4432 -4433 -4434 0
1781 -2921 -4430 -4431 -4432 -4433 -4434 0
-1781 1793 -4430 -4431 -4432 -4433 -4434 0
1793 -2117 -4430 -4431 -4432 -4433 -4434 0
1793 -2921 -4430 -4431 -4432 -4433 -4434 0
-1781 -2117 -4430 -4431 -4432 -4433 -4434 0
-1793 -2117 -4430 -4431 -4432 -4433 -4434 0
-2117 -4430 -4431 -4432 -4433 -4434 0
-2117 -2921 -4430 -4431 -4432 -4433 -4434 0
-1781 -2921 -4430 -4431 -4432 -4433 -4434 0
-1793 -2921 -4430 -4431 -4432 -4433 -4434 0
-2921 -4430 -4431 -4432 -4433 -4434 0
4435 -1789 0
1789 -4435 0
-1791 4436 0
-4435 4436 0
1791 4435 -4436 0
4437 -4436 0
4436 -4437 0
-1791 -4435 0
-1790 0
-1792 0
-1793 0
4438 -1801 0
1801 -4438 0
-1803 4439 0
-4438 4439 0
1803 4438 -4439 0
4440 -4439 0
4439 -4440 0
-1803 -4438 0
-1802 0
-1804 0
-1805 0
-1801 4441 0
-1813 4441 0
-2125 4441 0
-2761 4441 0
1801 1813 2125 2761 -4441 0
4442 -4441 0
-4442 4441 0
-1803 4443 0
-1815 4443 0
-2127 4443 0
-2763 4443 0
-4442 4443 0
1803 1815 2127 2763 4442 -4443 0
4444 -4443 0
4443 -4444 0
-1803 -4442 0
-1815 -4442 0
-2127 -4442 0
-2763 -4442 0
-1802 4445 0
-1814 4445 0
2126 4445 0
2762 4445 0
1802 1814 -2126 -2762 -4445 0
-1802 4446 0
1814 4446 0
-2126 4446 0
2762 4446 0
1802 -1814 2126 -2762 -4446 0
-1802 4447 0
1814 4447 0
2126 4447 0
-2762 4447 0
1802 -1814 -2126 2762 -4447 0
1802 4448 0
-1814 4448 0
-2126 4448 0
2762 4448 0
-1802 1814 2126 -2762 -4448 0
1802 4449 0
-1814 4449 0
2126 4449 0
-2762 4449 0
-1802 1814 -2126 2762 -4449 0
1802 -1814 -4445 -4446 -4447 -4448 -4449 0
1802 -2126 -4445 -4446 -4447 -4448 -4449 0
1802 -2762 -4445 -4446 -4447 -4448 -4449 0
-1802 1814 -4445 -4446 -4447 -4448 -4449 0
1814 -2126 -4445 -4446 -4447 -4448 -4449 0
1814 -2762 -4445 -4446 -4447 -4448 -4449 0
-1802 -2126 -4445 -4446 -4447 -4448 -4449 0
-1814 -2126 -4445 -4446 -4447 -4448 -4449 0
-2126 -4445 -4446 -4447 -4448 -4449 0
-2126 -2762 -4445 -4446 -4447 -4448 -4449 0
-1802 -2762 -4445 -4446 -4447 -4448 -4449 0
-1814 -2762 -4445 -4446 -4447 -4448 -4449 0
-2762 -4445 -4446 -4447 -4448 -4449 0
-1804 4450 0
-1816 4450 0
2128 4450 0
2764 4450 0
1804 1816 -2128 -2764 -4450 0
-1804 4451 0
1816 4451 0
-2128 4451 0
2764 4451 0
1804 -1816 2128 -2764 -4451 0
-1804 4452 0
1816 4452 0
2128 4452 0
-2764 4452 0
1804 -1816 -2128 2764 -4452 0
1804 4453 0
-1816 4453 0
-2128 4453 0
2764 4453 0
-1804 1816 2128 -2764 -4453 0
1804 4454 0
-1816 4454 0
2128 4454 0
-2764 4454 0
-1804 1816 -2128 2764 -4454 0
1804 -1816 -4450 -4451 -4452 -4453 -4454 0
1804 -2128 -4450 -4451 -4452 -4453 -4454 0
1804 -2764 -4450 -4451 -4452 -4453 -4454 0
-1804 1816 -4450 -4451 -4452 -4453 -4454 0
1816 -2128 -4450 -4451 -4452 -4453 -4454 0
1816 -2764 -4450 -4451 -4452 -4453 -4454 0
-1804 -2128 -4450 -4451 -4452 -4453 -4454 0
-1816 -2128 -4450 -4451 -4452 -4453 -4454 0
-2128 -4450 -4451 -4452 -4453 -4454 0
-2128 -2764 -4450 -4451 -4452 -4453 -4454 0
-1804 -2764 -4450 -4451 -4452 -4453 -4454 0
-1816 -2764 -4450 -4451 -4452 -4453 -4454 0
-2764 -4450 -4451 -4452 -4453 -4454 0
-1805 4455 0
-1817 4455 0
2129 4455 0
2765 4455 0
1805 1817 -2129 -2765 -4455 0
-1805 4456 0
1817 4456 0
-2129 4456 0
2765 4456 0
1805 -1817 2129 -2765 -4456 0
-1805 4457 0
1817 4457 0
2129 4457 0
-2765 4457 0
1805 -1817 -2129 2765 -4457 0
1805 4458 0
-1817 4458 0
-2129 4458 0
2765 4458 0
-1805 1817 2129 -2765 -4458 0
1805 4459 0
-1817 4459 0
2129 4459 0
-2765 4459 0
-1805 1817 -2129 2765 -4459 0
1805 -1817 -4455 -4456 -4457 -4458 -4459 0
1805 -2129 -4455 -4456 -4457 -4458 -4459 0
1805 -2765 -4455 -4456 -4457 -4458 -4459 0
-1805 1817 -4455 -4456 -4457 -4458 -4459 0
1817 -2129 -4455 -4456 -4457 -4458 -4459 0
1817 -2765 -4455 -4456 -4457 -4458 -4459 0
-1805 -2129 -4455 -4456 -4457 -4458 -4459 0
-1817 -2129 -4455 -4456 -4457 -4458 -4459 0
-2129 -4455 -4456 -4457 -4458 -4459 0
-2129 -2765 -4455 -4456 -4457 -4458 -4459 0
-1805 -2765 -4455 -4456 -4457 -4458 -4459 0
-1817 -2765 -4455 -4456 -4457 -4458 -4459 0
-2765 -4455 -4456 -4457 -4458 -4459 0
-1813 4460 0
-1825 4460 0
1813 1825 -4460 0
4461 -4460 0
-4461 4460 0
-1815 4462 0
-1827 4462 0
-4461 4462 0
1815 1827 4461 -4462 0
4463 -4462 0
4462 -4463 0
-1815 -4461 0
-1827 -4461 0
1814 -1826 0
-1814 1826 0
1828 -1816 0
1816 -1828 0
1829 -1817 0
1817 -1829 0
-1825 4464 0
-1837 4464 0
-2137 4464 0
-2845 4464 0
1825 1837 2137 2845 -4464 0
4465 -4464 0
-4465 4464 0
-1827 4466 0
-1839 4466 0
-2139 4466 0
-2847 4466 0
-4465 4466 0
1827 1839 2139 2847 4465 -4466 0
4467 -4466 0
4466 -4467 0
-1827 -4465 0
-1839 -4465 0
-2139 -4465 0
-2847 -4465 0
-1826 4468 0
-1838 4468 0
2138 4468 0
2846 4468 0
1826 1838 -2138 -2846 -4468 0
-1826 4469 0
1838 4469 0
-2138 4469 0
2846 4469 0
1826 -1838 2138 -2846 -4469 0
-1826 4470 0
1838 4470 0
2138 4470 0
-2846 4470 0
1826 -1838 -2138 2846 -4470 0
1826 4471 0
-1838 4471 0
-2138 4471 0
2846 4471 0
-1826 1838 2138 -2846 -4471 0
1826 4472 0
-1838 4472 0
2138 4472 0
-2846 4472 0
-1826 1838 -2138 2846 -4472 0
1826 -1838 -4468 -4469 -4470 -4471 -4472 0
1826 -2138 -4468 -4469 -4470 -4471 -4472 0
1826 -2846 -4468 -4469 -4470 -4471 -4472 0
-1826 1838 -4468 -4469 -4470 -4471 -4472 0
1838 -2138 -4468 -4469 -4470 -4471 -4472 0
1838 -2846 -4468 -4469 -4470 -4471 -4472 0
-1826 -2138 -4468 -4469 -4470 -4471 -4472 0
-1838 -2138 -4468 -4469 -4470 -4471 -4472 0
-2138 -4468 -4469 -4470 -4471 -4472 0
-2138 -2846 -4468 -4469 -4470 -4471 -4472 0
-1826 -2846 -4468 -4469 -4470 -4471 -4472 0
-1838 -2846 -4468 -4469 -4470 -4471 -4472 0
-2846 -4468 -4469 -4470 -4471 -4472 0
-1828 4473 0
-1840 4473 0
2140 4473 0
2848 4473 0
1828 1840 -2140 -2848 -4473 0
-1828 4474 0
1840 4474 0
-2140 4474 0
2848 4474 0
1828 -1840 2140 -2848 -4474 0
-1828 4475 0
1840 4475 0
2140 4475 0
-2848 4475 0
1828 -1840 -2140 2848 -4475 0
1828 4476 0
-1840 4476 0
-2140 4476 0
2848 4476 0
-1828 1840 2140 -2848 -4476 0
1828 4477 0
-1840 4477 0
2140 4477 0
-2848 4477 0
-1828 1840 -2140 2848 -4477 0
1828 -1840 -4473 -4474 -4475 -4476 -4477 0
1828 -2140 -4473 -4474 -4475 -4476 -4477 0
1828 -2848 -4473 -4474 -4475 -4476 -4477 0
-1828 1840 -4473 -4474 -4475 -4476 -4477 0
1840 -2140 -4473 -4474 -4475 -4476 -4477 0
1840 -2848 -4473 -4474 -4475 -4476 -4477 0
-1828 -2140 -4473 -4474 -4475 -4476 -4477 0
-1840 -2140 -4473 -4474 -4475 -4476 -4477 0
-2140 -4473 -4474 -4475 -4476 -4477 0
-2140 -2848 -4473 -4474 -4475 -4476 -4477 0
-1828 -2848 -4473 -4474 -4475 -4476 -4477 0
-1840 -2848 -4473 -4474 -4475 -4476 -4477 0
-2848 -4473 -4474 -4475 -4476 -4477 0
-1829 4478 0
-1841 4478 0
2141 4478 0
2849 4478 0
1829 1841 -2141 -2849 -4478 0
-1829 4479 0
1841 4479 0
-2141 4479 0
2849 4479 0
1829 -1841 2141 -2849 -4479 0
-1829 4480 0
1841 4480 0
2141 4480 0
-2849 4480 0
1829 -1841 -2141 2849 -4480 0
1829 4481 0
-1841 4481 0
-2141 4481 0
2849 4481 0
-1829 1841 2141 -2849 -4481 0
1829 4482 0
-1841 4482 0
2141 4482 0
-2849 4482 0
-1829 1841 -2141 2849 -4482 0
1829 -1841 -4478 -4479 -4480 -4481 -4482 0
1829 -2141 -4478 -4479 -4480 -4481 -4482 0
1829 -2849 -4478 -4479 -4480 -4481 -4482 0
-1829 1841 -4478 -4479 -4480 -4481 -4482 0
1841 -2141 -4478 -4479 -4480 -4481 -4482 0
1841 -2849 -4478 -4479 -4480 -4481 -4482 0
-1829 -2141 -4478 -4479 -4480 -4481 -4482 0
-1841 -2141 -4478 -4479 -4480 -4481 -4482 0
-2141 -4478 -4479 -4480 -4481 -4482 0
-2141 -2849 -4478 -4479 -4480 -4481 -4482 0
-1829 -2849 -4478 -4479 -4480 -4481 -4482 0
-1841 -2849 -4478 -4479 -4480 -4481 -4482 0
-2849 -4478 -4479 -4480 -4481 -4482 0
-1837 4483 0
-1849 4483 0
1837 1849 -4483 0
4484 -4483 0
-4484 4483 0
-1839 4485 0
-1851 4485 0
-4484 4485 0
1839 1851 4484 -4485 0
4486 -4485 0
4485 -4486 0
-1839 -4484 0
-1851 -4484 0
1838 -1850 0
-1838 1850 0
1852 -1840 0
1840 -1852 0
1853 -1841 0
1841 -1853 0
-1849 4487 0
-1861 4487 0
-2149 4487 0
-2929 4487 0
1849 1861 2149 2929 -4487 0
4488 -4487 0
-4488 4487 0
-1851 4489 0
-1863 4489 0
-2151 4489 0
-2931 4489 0
-4488 4489 0
1851 1863 2151 2931 4488 -4489 0
4490 -4489 0
4489 -4490 0
-1851 -4488 0
-1863 -4488 0
-2151 -4488 0
-2931 -4488 0
-1850 4491 0
-1862 4491 0
2150 4491 0
2930 4491 0
1850 1862 -2150 -2930 -4491 0
-1850 4492 0
1862 4492 0
-2150 4492 0
2930 4492 0
1850 -1862 2150 -2930 -4492 0
-1850 4493 0
1862 4493 0
2150 4493 0
-2930 4493 0
1850 -1862 -2150 2930 -4493 0
1850 4494 0
-1862 4494 0
-2150 4494 0
2930 4494 0
-1850 1862 2150 -2930 -4494 0
1850 4495 0
-1862 4495 0
2150 4495 0
-2930 4495 0
-1850 1862 -2150 2930 -4495 0
1850 -1862 -4491 -4492 -4493 -4494 -4495 0
1850 -2150 -4491 -4492 -4493 -4494 -4495 0
1850 -2930 -4491 -4492 -4493 -4494 -4495 0
-1850 1862 -4491 -4492 -4493 -4494 -4495 0
1862 -2150 -4491 -4492 -4493 -4494 -4495 0
1862 -2930 -4491 -4492 -4493 -4494 -4495 0
-1850 -2150 -4491 -4492 -4493 -4494 -4495 0
-1862 -2150 -4491 -4492 -4493 -4494 -4495 0
-2150 -4491 -4492 -4493 -4494 -4495 0
-2150 -2930 -4491 -4492 -4493 -4494 -4495 0
-1850 -2930 -4491 -4492 -4493 -4494 -4495 0
-1862 -2930 -4491 -4492 -4493 -4494 -4495 0
-2930 -4491 -4492 -4493 -4494 -4495 0
-1852 4496 0
-1864 4496 0
2152 4496 0
2932 4496 0
1852 1864 -2152 -2932 -4496 0
-1852 4497 0
1864 4497 0
-2152 4497 0
2932 4497 0
1852 -1864 2152 -2932 -4497 0
-1852 4498 0
1864 4498 0
2152 4498 0
-2932 4498 0
1852 -1864 -2152 2932 -4498 0
1852 4499 0
-1864 4499 0
-2152 4499 0
2932 4499 0
-1852 1864 2152 -2932 -4499 0
1852 4500 0
-1864 4500 0
2152 4500 0
-2932 4500 0
-1852 1864 -2152 2932 -4500 0
1852 -1864 -4496 -4497 -4498 -4499 -4500 0
1852 -2152 -4496 -4497 -4498 -4499 -4500 0
1852 -2932 -4496 -4497 -4498 -4499 -4500 0
-1852 1864 -4496 -4497 -4498 -4499 -4500 0
1864 -2152 -4496 -4497 -4498 -4499 -4500 0
1864 -2932 -4496 -4497 -4498 -4499 -4500 0
-1852 -2152 -4496 -4497 -4498 -4499 -4500 0
-1864 -2152 -4496 -4497 -4498 -4499 -4500 0
-2152 -4496 -4497 -4498 -4499 -4500 0
-2152 -2932 -4496 -4497 -4498 -4499 -4500 0
-1852 -2932 -4496 -4497 -4498 -4499 -4500 0
-1864 -2932 -4496 -4497 -4498 -4499 -4500 0
-2932 -4496 -4497 -4498 -4499 -4500 0
-1853 4501 0
-1865 4501 0
2153 4501 0
2933 4501 0
1853 1865 -2153 -2933 -4501 0
-1853 4502 0
1865 4502 0
-2153 4502 0
2933 4502 0
1853 -1865 2153 -2933 -4502 0
-1853 4503 0
1865 4503 0
2153 4503 0
-2933 4503 0
1853 -1865 -2153 2933 -4503 0
1853 4504 0
-1865 4504 0
-2153 4504 0
2933 4504 0
-1853 1865 2153 -2933 -4504 0
1853 4505 0
-1865 4505 0
2153 4505 0
-2933 4505 0
-1853 1865 -2153 2933 -4505 0
1853 -1865 -4501 -4502 -4503 -4504 -4505 0
1853 -2153 -4501 -4502 -4503 -4504 -4505 0
1853 -2933 -4501 -4502 -4503 -4504 -4505 0
-1853 1865 -4501 -4502 -4503 -4504 -4505 0
1865 -2153 -4501 -4502 -4503 -4504 -4505 0
1865 -2933 -4501 -4502 -4503 -4504 -4505 0
-1853 -2153 -4501 -4502 -4503 -4504 -4505 0
-1865 -2153 -4501 -4502 -4503 -4504 -4505 0
-2153 -4501 -4502 -4503 -4504 -4505 0
-2153 -2933 -4501 -4502 -4503 -4504 -4505 0
-1853 -2933 -4501 -4502 -4503 -4504 -4505 0
-1865 -2933 -4501 -4502 -4503 -4504 -4505 0
-2933 -4501 -4502 -4503 -4504 -4505 0
4506 -1861 0
1861 -4506 0
-1863 4507 0
-4506 4507 0
1863 4506 -4507 0
4508 -4507 0
4507 -4508 0
-1863 -4506 0
-1862 0
-1864 0
-1865 0
4509 -1873 0
1873 -4509 0
-1875 4510 0
-4509 4510 0
1875 4509 -4510 0
4511 -4510 0
4510 -4511 0
-1875 -4509 0
-1874 0
-1876 0
-1877 0
-1873 4512 0
-1885 4512 0
-2161 4512 0
-2773 4512 0
1873 1885 2161 2773 -4512 0
4513 -4512 0
-4513 4512 0
-1875 4514 0
-1887 4514 0
-2163 4514 0
-2775 4514 0
-4513 4514 0
1875 1887 2163 2775 4513 -4514 0
4515 -4514 0
4514 -4515 0
-1875 -4513 0
-1887 -4513 0
-2163 -4513 0
-2775 -4513 0
-1874 4516 0
-1886 4516 0
2162 4516 0
2774 4516 0
1874 1886 -2162 -2774 -4516 0
-1874 4517 0
1886 4517 0
-2162 4517 0
2774 4517 0
1874 -1886 2162 -2774 -4517 0
-1874 4518 0
1886 4518 0
2162 4518 0
-2774 4518 0
1874 -1886 -2162 2774 -4518 0
1874 4519 0
-1886 4519 0
-2162 4519 0
2774 4519 0
-1874 1886 2162 -2774 -4519 0
1874 4520 0
-1886 4520 0
2162 4520 0
-2774 4520 0
-1874 1886 -2162 2774 -4520 0
1874 -1886 -4516 -4517 -4518 -4519 -4520 0
1874 -2162 -4516 -4517 -4518 -4519 -4520 0
1874 -2774 -4516 -4517 -4518 -4519 -4520 0
-1874 1886 -4516 -4517 -4518 -4519 -4520 0
1886 -2162 -4516 -4517 -4518 -4519 -4520 0
1886 -2774 -4516 -4517 -4518 -4519 -4520 0
-1874 -2162 -4516 -4517 -4518 -4519 -4520 0
-1886 -2162 -4516 -4517 -4518 -4519 -4520 0
-2162 -4516 -4517 -4518 -4519 -4520 0
-2162 -2774 -4516 -4517 -4518 -4519 -4520 0
-1874 -2774 -4516 -4517 -4518 -4519 -4520 0
-1886 -2774 -4516 -4517 -4518 -4519 -4520 0
-2774 -4516 -4517 -4518 -4519 -4520 0
-1876 4521 0
-1888 4521 0
2164 4521 0
2776 4521 0
1876 1888 -2164 -2776 -4521 0
-1876 4522 0
1888 4522 0
-2164 4522 0
2776 4522 0
1876 -1888 2164 -2776 -4522 0
-1876 4523 0
1888 4523 0
2164 4523 0
-2776 4523 0
1876 -1888 -2164 2776 -4523 0
1876 4524 0
-1888 4524 0
-2164 4524 0
2776 4524 0
-1876 1888 2164 -2776 -4524 0
1876 4525 0
-1888 4525 0
2164 4525 0
-2776 4525 0
-1876 1888 -2164 2776 -4525 0
1876 -1888 -4521 -4522 -4523 -4524 -4525 0
1876 -2164 -4521 -4522 -4523 -4524 -4525 0
1876 -2776 -4521 -4522 -4523 -4524 -4525 0
-1876 1888 -4521 -4522 -4523 -4524 -4525 0
1888 -2164 -4521 -4522 -4523 -4524 -4525 0
1888 -2776 -4521 -4522 -4523 -4524 -4525 0
-1876 -2164 -4521 -4522 -4523 -4524 -4525 0
-1888 -2164 -4521 -4522 -4523 -4524 -4525 0
-2164 -4521 -4522 -4523 -4524 -4525 0
-2164 -2776 -4521 -4522 -4523 -4524 -4525 0
-1876 -2776 -4521 -4522 -4523 -4524 -4525 0
-1888 -2776 -4521 -4522 -4523 -4524 -4525 0
-2776 -4521 -4522 -4523 -4524 -4525 0
-1877 4526 0
-1889 4526 0
2165 4526 0
2777 4526 0
1877 1889 -2165 -2777 -4526 0
-1877 4527 0
1889 4527 0
-2165 4527 0
2777 4527 0
1877 -1889 2165 -2777 -4527 0
-1877 4528 0
1889 4528 0
2165 4528 0
-2777 4528 0
1877 -1889 -2165 2777 -4528 0
1877 4529 0
-1889 4529 0
-2165 4529 0
2777 4529 0
-1877 1889 2165 -2777 -4529 0
1877 4530 0
-1889 4530 0
2165 4530 0
-2777 4530 0
-1877 1889 -2165 2777 -4530 0
1877 -1889 -4526 -4527 -4528 -4529 -4530 0
1877 -2165 -4526 -4527 -4528 -4529 -4530 0
1877 -2777 -4526 -4527 -4528 -4529 -4530 0
-1877 1889 -4526 -4527 -4528 -4529 -4530 0
1889 -2165 -4526 -4527 -4528 -4529 -4530 0
1889 -2777 -4526 -4527 -4528 -4529 -4530 0
-1877 -2165 -4526 -4527 -4528 -4529 -4530 0
-1889 -2165 -4526 -4527 -4528 -4529 -4530 0
-2165 -4526 -4527 -4528 -4529 -4530 0
-2165 -2777 -4526 -4527 -4528 -4529 -4530 0
-1877 -2777 -4526 -4527 -4528 -4529 -4530 0
-1889 -2777 -4526 -4527 -4528 -4529 -4530 0
-2777 -4526 -4527 -4528 -4529 -4530 0
-1885 4531 0
-1897 4531 0
1885 1897 -4531 0
4532 -4531 0
-4532 4531 0
-1887 4533 0
-1899 4533 0
-4532 4533 0
1887 1899 4532 -4533 0
4534 -4533 0
4533 -4534 0
-1887 -4532 0
-1899 -4532 0
1886 -1898 0
-1886 1898 0
1900 -1888 0
1888 -1900 0
1901 -1889 0
1889 -1901 0
-1897 4535 0
-1909 4535 0
-2173 4535 0
-2857 4535 0
1897 1909 2173 2857 -4535 0
4536 -4535 0
-4536 4535 0
-1899 4537 0
-1911 4537 0
-2175 4537 0
-2859 4537 0
-4536 4537 0
1899 1911 2175 2859 4536 -4537 0
4538 -4537 0
4537 -4538 0
-1899 -4536 0
-1911 -4536 0
-2175 -4536 0
-2859 -4536 0
-1898 4539 0
-1910 4539 0
2174 4539 0
2858 4539 0
1898 1910 -2174 -2858 -4539 0
-1898 4540 0
1910 4540 0
-2174 4540 0
2858 4540 0
1898 -1910 2174 -2858 -4540 0
-1898 4541 0
1910 4541 0
2174 4541 0
-2858 4541 0
1898 -1910 -2174 2858 -4541 0
1898 4542 0
-1910 4542 0
-2174 4542 0
2858 4542 0
-1898 1910 2174 -2858 -4542 0
1898 4543 0
-1910 4543 0
2174 4543 0
-2858 4543 0
-1898 1910 -2174 2858 -4543 0
1898 -1910 -4539 -4540 -4541 -4542 -4543 0
1898 -2174 -4539 -4540 -4541 -4542 -4543 0
1898 -2858 -4539 -4540 -4541 -4542 -4543 0
-1898 1910 -4539 -4540 -4541 -4542 -4543 0
1910 -2174 -4539 -4540 -4541 -4542 -4543 0
1910 -2858 -4539 -4540 -4541 -4542 -4543 0
-1898 -2174 -4539 -4540 -4541 -4542 -4543 0
-1910 -2174 -4539 -4540 -4541 -4542 -4543 0
-2174 -4539 -4540 -4541 -4542 -4543 0
-2174 -2858 -4539 -4540 -4541 -4542 -4543 0
-1898 -2858 -4539 -4540 -4541 -4542 -4543 0
-1910 -2858 -4539 -4540 -4541 -4542 -4543 0
-2858 -4539 -4540 -4541 -4542 -4543 0
-1900 4544 0
-1912 4544 0
2176 4544 0
2860 4544 0
1900 1912 -2176 -2860 -4544 0
-1900 4545 0
1912 4545 0
-2176 4545 0
2860 4545 0
1900 -1912 2176 -2860 -4545 0
-1900 4546 0
1912 4546 0
2176 4546 0
-2860 4546 0
1900 -1912 -2176 2860 -4546 0
1900 4547 0
-1912 4547 0
-2176 4547 0
2860 4547 0
-1900 1912 2176 -2860 -4547 0
1900 4548 0
-1912 4548 0
2176 4548 0
-2860 4548 0
-1900 1912 -2176 2860 -4548 0
1900 -1912 -4544 -4545 -4546 -4547 -4548 0
1900 -2176 -4544 -4545 -4546 -4547 -4548 0
1900 -2860 -4544 -4545 -4546 -4547 -4548 0
-1900 1912 -4544 -4545 -4546 -4547 -4548 0
1912 -2176 -4544 -4545 -4546 -4547 -4548 0
1912 -2860 -4544 -4545 -4546 -4547 -4548 0
-1900 -2176 -4544 -4545 -4546 -4547 -4548 0
-1912 -2176 -4544 -4545 -4546 -4547 -4548 0
-2176 -4544 -4545 -4546 -4547 -4548 0
-2176 -2860 -4544 -4545 -4546 -4547 -4548 0
-1900 -2860 -4544 -4545 -4546 -4547 -4548 0
-1912 -2860 -4544 -4545 -4546 -4547 -4548 0
-2860 -4544 -4545 -4546 -4547 -4548 0
-1901 4549 0
-1913 4549 0
2177 4549 0
2861 4549 0
1901 1913 -2177 -2861 -4549 0
-1901 4550 0
1913 4550 0
-2177 4550 0
2861 4550 0
1901 -1913 2177 -2861 -4550 0
-1901 4551 0
1913 4551 0
2177 4551 0
-2861 4551 0
1901 -1913 -2177 2861 -4551 0
1901 4552 0
-1913 4552 0
-2177 4552 0
2861 4552 0
-1901 1913 2177 -2861 -4552 0
1901 4553 0
-1913 4553 0
2177 4553 0
-2861 4553 0
-1901 1913 -2177 2861 -4553 0
1901 -1913 -4549 -4550 -4551 -4552 -4553 0
1901 -2177 -4549 -4550 -4551 -4552 -4553 0
1901 -2861 -4549 -4550 -4551 -4552 -4553 0
-1901 1913 -4549 -4550 -4551 -4552 -4553 0
1913 -2177 -4549 -4550 -4551 -4552 -4553 0
1913 -2861 -4549 -4550 -4551 -4552 -4553 0
-1901 -2177 -4549 -4550 -4551 -4552 -4553 0
-1913 -2177 -4549 -4550 -4551 -4552 -4553 0
-2177 -4549 -4550 -4551 -4552 -4553 0
-2177 -2861 -4549 -4550 -4551 -4552 -4553 0
-1901 -2861 -4549 -4550 -4551 -4552 -4553 0
-1913 -2861 -4549 -4550 -4551 -4552 -4553 0
-2861 -4549 -4550 -4551 -4552 -4553 0
-1909 4554 0
-1921 4554 0
1909 1921 -4554 0
4555 -4554 0
-4555 4554 0
-1911 4556 0
-1923 4556 0
-4555 4556 0
1911 1923 4555 -4556 0
4557 -4556 0
4556 -4557 0
-1911 -4555 0
-1923 -4555 0
1910 -1922 0
-1910 1922 0
1924 -1912 0
1912 -1924 0
1925 -1913 0
1913 -1925 0
-1921 4558 0
-1933 4558 0
-2185 4558 0
-2941 4558 0
1921 1933 2185 2941 -4558 0
4559 -4558 0
-4559 4558 0
-1923 4560 0
-1935 4560 0
-2187 4560 0
-2943 4560 0
-4559 4560 0
1923 1935 2187 2943 4559 -4560 0
4561 -4560 0
4560 -4561 0
-1923 -4559 0
-1935 -4559 0
-2187 -4559 0
-2943 -4559 0
-1922 4562 0
-1934 4562 0
2186 4562 0
2942 4562 0
1922 1934 -2186 -2942 -4562 0
-1922 4563 0
1934 4563 0
-2186 4563 0
2942 4563 0
1922 -1934 2186 -2942 -4563 0
-1922 4564 0
1934 4564 0
2186 4564 0
-2942 4564 0
1922 -1934 -2186 2942 -4564 0
1922 4565 0
-1934 4565 0
-2186 4565 0
2942 4565 0
-1922 1934 2186 -2942 -4565 0
1922 4566 0
-1934 4566 0
2186 4566 0
-2942 4566 0
-1922 1934 -2186 2942 -4566 0
1922 -1934 -4562 -4563 -4564 -4565 -4566 0
1922 -2186 -4562 -4563 -4564 -4565 -4566 0
1922 -2942 -4562 -4563 -4564 -4565 -4566 0
-1922 1934 -4562 -4563 -4564 -4565 -4566 0
1934 -2186 -4562 -4563 -4564 -4565 -4566 0
1934 -2942 -4562 -4563 -4564 -4565 -4566 0
-1922 -2186 -4562 -4563 -4564 -4565 -4566 0
-1934 -2186 -4562 -4563 -4564 -4565 -4566 0
-2186 -4562 -4563 -4564 -4565 -4566 0
-2186 -2942 -4562 -4563 -4564 -4565 -4566 0
-1922 -2942 -4562 -4563 -4564 -4565 -4566 0
-1934 -2942 -4562 -4563 -4564 -4565 -4566 0
-2942 -4562 -4563 -4564 -4565 -4566 0
-1924 4567 0
-1936 4567 0
2188 4567 0
2944 4567 0
1924 1936 -2188 -2944 -4567 0
-1924 4568 0
1936 4568 0
-2188 4568 0
2944 4568 0
1924 -1936 2188 -2944 -4568 0
-1924 4569 0
1936 4569 0
2188 4569 0
-2944 4569 0
1924 -1936 -2188 2944 -4569 0
1924 4570 0
-1936 4570 0
-2188 4570 0
2944 4570 0
-1924 1936 2188 -2944 -4570 0
1924 4571 0
-1936 4571 0
2188 4571 0
-2944 4571 0
-1924 1936 -2188 2944 -4571 0
1924 -1936 -4567 -4568 -4569 -4570 -4571 0
1924 -2188 -4567 -4568 -4569 -4570 -4571 0
1924 -2944 -4567 -4568 -4569 -4570 -4571 0
-1924 1936 -4567 -4568 -4569 -4570 -4571 0
1936 -2188 -4567 -4568 -4569 -4570 -4571 0
1936 -2944 -4567 -4568 -4569 -4570 -4571 0
-1924 -2188 -4567 -4568 -4569 -4570 -4571 0
-1936 -2188 -4567 -4568 -4569 -4570 -4571 0
-2188 -4567 -4568 -4569 -4570 -4571 0
-2188 -2944 -4567 -4568 -4569 -4570 -4571 0
-1924 -2944 -4567 -4568 -4569 -4570 -4571 0
-1936 -2944 -4567 -4568 -4569 -4570 -4571 0
-2944 -4567 -4568 -4569 -4570 -4571 0
-1925 4572 0
-1937 4572 0
2189 4572 0
2945 4572 0
1925 1937 -2189 -2945 -4572 0
-1925 4573 0
1937 4573 0
-2189 4573 0
2945 4573 0
1925 -1937 2189 -2945 -4573 0
-1925 4574 0
1937 4574 0
2189 4574 0
-2945 4574 0
1925 -1937 -2189 2945 -4574 0
1925 4575 0
-1937 4575 0
-2189 4575 0
2945 4575 0
-1925 1937 2189 -2945 -4575 0
1925 4576 0
-1937 4576 0
2189 4576 0
-2945 4576 0
-1925 1937 -2189 2945 -4576 0
1925 -1937 -4572 -4573 -4574 -4575 -4576 0
1925 -2189 -4572 -4573 -4574 -4575 -4576 0
1925 -2945 -4572 -4573 -4574 -4575 -4576 0
-1925 1937 -4572 -4573 -4574 -4575 -4576 0
1937 -2189 -4572 -4573 -4574 -4575 -4576 0
1937 -2945 -4572 -4573 -4574 -4575 -4576 0
-1925 -2189 -4572 -4573 -4574 -4575 -4576 0
-1937 -2189 -4572 -4573 -4574 -4575 -4576 0
-2189 -4572 -4573 -4574 -4575 -4576 0
-2189 -2945 -4572 -4573 -4574 -4575 -4576 0
-1925 -2945 -4572 -4573 -4574 -4575 -4576 0
-1937 -2945 -4572 -4573 -4574 -4575 -4576 0
-2945 -4572 -4573 -4574 -4575 -4576 0
4577 -1933 0
1933 -4577 0
-1935 4578 0
-4577 4578 0
1935 4577 -4578 0
4579 -4578 0
4578 -4579 0
-1935 -4577 0
-1934 0
-1936 0
-1937 0
2497 2499 2533 2535 2569 2571 2605 2607 2641 2643 0
-2497 4580 0
-2533 4580 0
-2569 4580 0
-2605 4580 0
-2641 4580 0
2497 2533 2569 2605 2641 -4580 0
4581 -4580 0
-4581 4580 0
-2499 4582 0
-2535 4582 0
-2571 4582 0
-2607 4582 0
-2643 4582 0
-4581 4582 0
2499 2535 2571 2607 2643 4581 -4582 0
4583 -4582 0
4582 -4583 0
-2499 -4581 0
-2535 -4581 0
-2571 -4581 0
-2607 -4581 0
-2643 -4581 0
2509 2511 2545 2547 0
-2509 4584 0
-2545 4584 0
2509 2545 -4584 0
4585 -4584 0
-4585 4584 0
-2511 4586 0
-2547 4586 0
-4585 4586 0
2511 2547 4585 -4586 0
4587 -4586 0
4586 -4587 0
-2511 -4585 0
-2547 -4585 0
2617 2619 2653 2655 0
-2617 4588 0
-2653 4588 0
2617 2653 -4588 0
4589 -4588 0
-4589 4588 0
-2619 4590 0
-2655 4590 0
-4589 4590 0
2619 2655 4589 -4590 0
4591 -4590 0
4590 -4591 0
-2619 -4589 0
-2655 -4589 0
2498 2534 2570 2606 2642 0
4592 -2498 0
2498 -4592 0
-2534 4593 0
-4592 4593 0
2534 4592 -4593 0
4594 -4593 0
-4594 4593 0
-2534 -4592 0
-2570 4595 0
-4594 4595 0
2570 4594 -4595 0
4596 -4595 0
-4596 4595 0
-2570 -4594 0
-2606 4597 0
-4596 4597 0
2606 4596 -4597 0
4598 -4597 0
-4598 4597 0
-2606 -4596 0
-2642 4599 0
-4598 4599 0
2642 4598 -4599 0
4600 -4599 0
4599 -4600 0
-2642 -4598 0
-2500 4601 0
-2536 4601 0
-2572 4601 0
2608 4601 0
2644 4601 0
2500 2536 2572 -2608 -2644 -4601 0
-2500 4602 0
-2536 4602 0
2572 4602 0
-2608 4602 0
2644 4602 0
2500 2536 -2572 2608 -2644 -4602 0
-2500 4603 0
-2536 4603 0
2572 4603 0
2608 4603 0
-2644 4603 0
2500 2536 -2572 -2608 2644 -4603 0
-2500 4604 0
2536 4604 0
-2572 4604 0
-2608 4604 0
2644 4604 0
2500 -2536 2572 2608 -2644 -4604 0
-2500 4605 0
2536 4605 0
-2572 4605 0
2608 4605 0
-2644 4605 0
2500 -2536 2572 -2608 2644 -4605 0
-2500 4606 0
2536 4606 0
2572 4606 0
-2608 4606 0
-2644 4606 0
2500 -2536 -2572 2608 2644 -4606 0
2500 4607 0
-2536 4607 0
-2572 4607 0
-2608 4607 0
2644 4607 0
-2500 2536 2572 2608 -2644 -4607 0
2500 4608 0
-2536 4608 0
-2572 4608 0
2608 4608 0
-2644 4608 0
-2500 2536 2572 -2608 2644 -4608 0
2500 4609 0
-2536 4609 0
2572 4609 0
-2608 4609 0
-2644 4609 0
-2500 2536 -2572 2608 2644 -4609 0
2500 -2536 -4601 -4602 -4603 -4604 -4605 -4606 -4607 -4608 -4609 0
2500 -2572 -4601 -4602 -4603 -4604 -4605 -4606 -4607 -4608 -4609 0
2500 -2608 -4601 -4602 -4603 -4604 -4605 -4606 -4607 -4608 -4609 0
2500 -2644 -4601 -4602 -4603 -4604 -4605 -4606 -4607 -4608 -4609 0
-2500 2536 -4601 -4602 -4603 -4604 -4605 -4606 -4607 -4608 -4609 0
2536 -2572 -4601 -4602 -4603 -4604 -4605 -4606 -4607 -4608 -4609 0
2536 -2608 -4601 -4602 -4603 -4604 -4605 -4606 -4607 -4608 -4609 0
2536 -2644 -4601 -4602 -4603 -4604 -4605 -4606 -4607 -4608 -4609 0
-2500 -2572 -4601 -4602 -4603 -4604 -4605 -4606 -4607 -4608 -4609 0
-2536 -2572 -4601 -4602 -4603 -4604 -4605 -4606 -4607 -4608 -4609 0
-2572 -4601 -4602 -4603 -4604 -4605 -4606 -4607 -4608 -4609 0
-2572 -2608 -4601 -4602 -4603 -4604 -4605 -4606 -4607 -4608 -4609 0
-2572 -2644 -4601 -4602 -4603 -4604 -4605 -4606 -4607 -4608 -4609 0
-2500 -2608 -4601 -4602 -4603 -4604 -4605 -4606 -4607 -4608 -4609 0
-2536 -2608 -4601 -4602 -4603 -4604 -4605 -4606 -4607 -4608 -4609 0
-2608 -4601 -4602 -4603 -4604 -4605 -4606 -4607 -4608 -4609 0
-2608 -2644 -4601 -4602 -4603 -4604 -4605 -4606 -4607 -4608 -4609 0
-2500 -2644 -4601 -4602 -4603 -4604 -4605 -4606 -4607 -4608 -4609 0
-2536 -2644 -4601 -4602 -4603 -4604 -4605 -4606 -4607 -4608 -4609 0
-2644 -4601 -4602 -4603 -4604 -4605 -4606 -4607 -4608 -4609 0
-2501 4610 0
-2537 4610 0
-2573 4610 0
2609 4610 0
2645 4610 0
2501 2537 2573 -2609 -2645 -4610 0
-2501 4611 0
-2537 4611 0
2573 4611 0
-2609 4611 0
2645 4611 0
2501 2537 -2573 2609 -2645 -4611 0
-2501 4612 0
-2537 4612 0
2573 4612 0
2609 4612 0
-2645 4612 0
2501 2537 -2573 -2609 2645 -4612 0
-2501 4613 0
2537 4613 0
-2573 4613 0
-2609 4613 0
2645 4613 0
2501 -2537 2573 2609 -2645 -4613 0
-2501 4614 0
2537 4614 0
-2573 4614 0
2609 4614 0
-2645 4614 0
2501 -2537 2573 -2609 2645 -4614 0
-2501 4615 0
2537 4615 0
2573 4615 0
-2609 4615 0
-2645 4615 0
2501 -2537 -2573 2609 2645 -4615 0
2501 4616 0
-2537 4616 0
-2573 4616 0
-2609 4616 0
2645 4616 0
-2501 2537 2573 2609 -2645 -4616 0
2501 4617 0
-2537 4617 0
-2573 4617 0
2609 4617 0
-2645 4617 0
-2501 2537 2573 -2609 2645 -4617 0
2501 4618 0
-2537 4618 0
2573 4618 0
-2609 4618 0
-2645 4618 0
-2501 2537 -2573 2609 2645 -4618 0
2501 -2537 -4610 -4611 -4612 -4613 -4614 -4615 -4616 -4617 -4618 0
2501 -2573 -4610 -4611 -4612 -4613 -4614 -4615 -4616 -4617 -4618 0
2501 -2609 -4610 -4611 -4612 -4613 -4614 -4615 -4616 -4617 -4618 0
2501 -2645 -4610 -4611 -4612 -4613 -4614 -4615 -4616 -4617 -4618 0
-2501 2537 -4610 -4611 -4612 -4613 -4614 -4615 -4616 -4617 -4618 0
2537 -2573 -4610 -4611 -4612 -4613 -4614 -4615 -4616 -4617 -4618 0
2537 -2609 -4610 -4611 -4612 -4613 -4614 -4615 -4616 -4617 -4618 0
2537 -2645 -4610 -4611 -4612 -4613 -4614 -4615 -4616 -4617 -4618 0
-2501 -2573 -4610 -4611 -4612 -4613 -4614 -4615 -4616 -4617 -4618 0
-2537 -2573 -4610 -4611 -4612 -4613 -4614 -4615 -4616 -4617 -4618 0
-2573 -4610 -4611 -4612 -4613 -4614 -4615 -4616 -4617 -4618 0
-2573 -2609 -4610 -4611 -4612 -4613 -4614 -4615 -4616 -4617 -4618 0
-2573 -2645 -4610 -4611 -4612 -4613 -4614 -4615 -4616 -4617 -4618 0
-2501 -2609 -4610 -4611 -4612 -4613 -4614 -4615 -4616 -4617 -4618 0
-2537 -2609 -4610 -4611 -4612 -4613 -4614 -4615 -4616 -4617 -4618 0
-2609 -4610 -4611 -4612 -4613 -4614 -4615 -4616 -4617 -4618 0
-2609 -2645 -4610 -4611 -4612 -4613 -4614 -4615 -4616 -4617 -4618 0
-2501 -2645 -4610 -4611 -4612 -4613 -4614 -4615 -4616 -4617 -4618 0
-2537 -2645 -4610 -4611 -4612 -4613 -4614 -4615 -4616 -4617 -4618 0
-2645 -4610 -4611 -4612 -4613 -4614 -4615 -4616 -4617 -4618 0
2546 -2510 0
2510 -2546 0
2512 2548 0
4619 -2512 0
2512 -4619 0
-2548 4620 0
-4619 4620 0
2548 4619 -4620 0
4621 -4620 0
4620 -4621 0
-2548 -4619 0
2513 2549 0
4622 -2513 0
2513 -4622 0
-2549 4623 0
-4622 4623 0
2549 4622 -4623 0
4624 -4623 0
4623 -4624 0
-2549 -4622 0
2654 -2618 0
2618 -2654 0
2620 2656 0
4625 -2620 0
2620 -4625 0
-2656 4626 0
-4625 4626 0
2656 4625 -4626 0
4627 -4626 0
4626 -4627 0
-2656 -4625 0
2657 -2621 0
2621 -2657 0
2702 2714 2726 2738 2750 2762 2774 2786 2798 2810 2822 2834 2846 2858 2870 2882 2894 2906 2918 2930 2942 0
4628 -2702 0
2702 -4628 0
-2714 4629 0
-4628 4629 0
2714 4628 -4629 0
4630 -4629 0
-4630 4629 0
-2714 -4628 0
-2726 4631 0
-4630 4631 0
2726 4630 -4631 0
4632 -4631 0
-4632 4631 0
-2726 -4630 0
-2738 4633 0
-4632 4633 0
2738 4632 -4633 0
4634 -4633 0
-4634 4633 0
-2738 -4632 0
-2750 4635 0
-4634 4635 0
2750 4634 -4635 0
4636 -4635 0
-4636 4635 0
-2750 -4634 0
-2762 4637 0
-4636 4637 0
2762 4636 -4637 0
4638 -4637 0
-4638 4637 0
-2762 -4636 0
-2774 4639 0
-4638 4639 0
2774 4638 -4639 0
4640 -4639 0
-4640 4639 0
-2774 -4638 0
-2786 4641 0
-4640 4641 0
2786 4640 -4641 0
4642 -4641 0
-4642 4641 0
-2786 -4640 0
-2798 4643 0
-4642 4643 0
2798 4642 -4643 0
4644 -4643 0
-4644 4643 0
-2798 -4642 0
-2810 4645 0
-4644 4645 0
2810 4644 -4645 0
4646 -4645 0
-4646 4645 0
-2810 -4644 0
-2822 4647 0
-4646 4647 0
2822 4646 -4647 0
4648 -4647 0
-4648 4647 0
-2822 -4646 0
-2834 4649 0
-4648 4649 0
2834 4648 -4649 0
4650 -4649 0
-4650 4649 0
-2834 -4648 0
-2846 4651 0
-4650 4651 0
2846 4650 -4651 0
4652 -4651 0
-4652 4651 0
-2846 -4650 0
-2858 4653 0
-4652 4653 0
2858 4652 -4653 0
4654 -4653 0
-4654 4653 0
-2858 -4652 0
-2870 4655 0
-4654 4655 0
2870 4654 -4655 0
4656 -4655 0
-4656 4655 0
-2870 -4654 0
-2882 4657 0
-4656 4657 0
2882 4656 -4657 0
4658 -4657 0
-4658 4657 0
-2882 -4656 0
-2894 4659 0
-4658 4659 0
2894 4658 -4659 0
4660 -4659 0
-4660 4659 0
-2894 -4658 0
-2906 4661 0
-4660 4661 0
2906 4660 -4661 0
4662 -4661 0
-4662 4661 0
-2906 -4660 0
-2918 4663 0
-4662 4663 0
2918 4662 -4663 0
4664 -4663 0
-4664 4663 0
-2918 -4662 0
-2930 4665 0
-4664 4665 0
2930 4664 -4665 0
4666 -4665 0
-4666 4665 0
-2930 -4664 0
-2942 4667 0
-4666 4667 0
2942 4666 -4667 0
4668 -4667 0
4667 -4668 0
-2942 -4666 0
-2704 0
-2716 0
-2728 0
-2740 0
-2752 0
-2764 0
-2776 0
-2788 0
-2800 0
-2812 0
-2824 0
-2836 0
-2848 0
-2860 0
-2872 0
-2884 0
-2896 0
-2908 0
-2920 0
-2932 0
-2944 0
2705 2717 2729 2741 2753 2765 2777 2789 2801 2813 2825 2837 2849 2861 2873 2885 2897 2909 2921 2933 2945 0
4669 -2705 0
2705 -4669 0
-2717 4670 0
-4669 4670 0
2717 4669 -4670 0
4671 -4670 0
-4671 4670 0
-2717 -4669 0
-2729 4672 0
-4671 4672 0
2729 4671 -4672 0
4673 -4672 0
-4673 4672 0
-2729 -4671 0
-2741 4674 0
-4673 4674 0
2741 4673 -4674 0
4675 -4674 0
-4675 4674 0
-2741 -4673 0
-2753 4676 0
-4675 4676 0
2753 4675 -4676 0
4677 -4676 0
-4677 4676 0
-2753 -4675 0
-2765 4678 0
-4677 4678 0
2765 4677 -4678 0
4679 -4678 0
-4679 4678 0
-2765 -4677 0
-2777 4680 0
-4679 4680 0
2777 4679 -4680 0
4681 -4680 0
-4681 4680 0
-2777 -4679 0
-2789 4682 0
-4681 4682 0
2789 4681 -4682 0
4683 -4682 0
-4683 4682 0
-2789 -4681 0
-2801 4684 0
-4683 4684 0
2801 4683 -4684 0
4685 -4684 0
-4685 4684 0
-2801 -4683 0
-2813 4686 0
-4685 4686 0
2813 4685 -4686 0
4687 -4686 0
-4687 4686 0
-2813 -4685 0
-2825 4688 0
-4687 4688 0
2825 4687 -4688 0
4689 -4688 0
-4689 4688 0
-2825 -4687 0
-2837 4690 0
-4689 4690 0
2837 4689 -4690 0
4691 -4690 0
-4691 4690 0
-2837 -4689 0
-2849 4692 0
-4691 4692 0
2849 4691 -4692 0
4693 -4692 0
-4693 4692 0
-2849 -4691 0
-2861 4694 0
-4693 4694 0
2861 4693 -4694 0
4695 -4694 0
-4695 4694 0
-2861 -4693 0
-2873 4696 0
-4695 4696 0
2873 4695 -4696 0
4697 -4696 0
-4697 4696 0
-2873 -4695 0
-2885 4698 0
-4697 4698 0
2885 4697 -4698 0
4699 -4698 0
-4699 4698 0
-2885 -4697 0
-2897 4700 0
-4699 4700 0
2897 4699 -4700 0
4701 -4700 0
-4701 4700 0
-2897 -4699 0
-2909 4702 0
-4701 4702 0
2909 4701 -4702 0
4703 -4702 0
-4703 4702 0
-2909 -4701 0
-2921 4704 0
-4703 4704 0
2921 4703 -4704 0
4705 -4704 0
-4705 4704 0
-2921 -4703 0
-2933 4706 0
-4705 4706 0
2933 4705 -4706 0
4707 -4706 0
-4707 4706 0
-2933 -4705 0
-2945 4708 0
-4707 4708 0
2945 4707 -4708 0
4709 -4708 0
4708 -4709 0
-2945 -4707 0
4710 -6 0
6 -4710 0
-4711 0
-6 -18 -4712 0
-6 -4712 0
18 -4712 0
6 18 -4712 0
6 -18 4712 0
6 -4713 0
6 18 -4713 0
-6 -18 -4713 0
-18 -4713 0
-6 18 4713 0
-18 -30 -4714 0
-18 -4714 0
30 -4714 0
18 30 -4714 0
18 -30 4714 0
18 -4715 0
18 30 -4715 0
-18 -30 -4715 0
-30 -4715 0
-18 30 4715 0
-30 -42 -4716 0
-30 -4716 0
42 -4716 0
30 42 -4716 0
30 -42 4716 0
30 -4717 0
30 42 -4717 0
-30 -42 -4717 0
-42 -4717 0
-30 42 4717 0
-42 -54 -4718 0
-42 -4718 0
54 -4718 0
42 54 -4718 0
42 -54 4718 0
42 -4719 0
42 54 -4719 0
-42 -54 -4719 0
-54 -4719 0
-42 54 4719 0
-54 -66 -4720 0
-54 -4720 0
66 -4720 0
54 66 -4720 0
54 -66 4720 0
54 -4721 0
54 66 -4721 0
-54 -66 -4721 0
-66 -4721 0
-54 66 4721 0
-4722 0
4723 -66 0
66 -4723 0
4724 -78 0
78 -4724 0
-4725 0
-78 -90 -4726 0
-78 -4726 0
90 -4726 0
78 90 -4726 0
78 -90 4726 0
78 -4727 0
78 90 -4727 0
-78 -90 -4727 0
-90 -4727 0
-78 90 4727 0
-90 -102 -4728 0
-90 -4728 0
102 -4728 0
90 102 -4728 0
90 -102 4728 0
90 -4729 0
90 102 -4729 0
-90 -102 -4729 0
-102 -4729 0
-90 102 4729 0
-102 -114 -4730 0
-102 -4730 0
114 -4730 0
102 114 -4730 0
102 -114 4730 0
102 -4731 0
102 114 -4731 0
-102 -114 -4731 0
-114 -4731 0
-102 114 4731 0
-114 -126 -4732 0
-114 -4732 0
126 -4732 0
114 126 -4732 0
114 -126 4732 0
114 -4733 0
114 126 -4733 0
-114 -126 -4733 0
-126 -4733 0
-114 126 4733 0
-126 -138 -4734 0
-126 -4734 0
138 -4734 0
126 138 -4734 0
126 -138 4734 0
126 -4735 0
126 138 -4735 0
-126 -138 -4735 0
-138 -4735 0
-126 138 4735 0
-4736 0
4737 -138 0
138 -4737 0
4738 -150 0
150 -4738 0
-4739 0
-150 -162 -4740 0
-150 -4740 0
162 -4740 0
150 162 -4740 0
150 -162 4740 0
150 -4741 0
150 162 -4741 0
-150 -162 -4741 0
-162 -4741 0
-150 162 4741 0
-162 -174 -4742 0
-162 -4742 0
174 -4742 0
162 174 -4742 0
162 -174 4742 0
162 -4743 0
162 174 -4743 0
-162 -174 -4743 0
-174 -4743 0
-162 174 4743 0
-174 -186 -4744 0
-174 -4744 0
186 -4744 0
174 186 -4744 0
174 -186 4744 0
174 -4745 0
174 186 -4745 0
-174 -186 -4745 0
-186 -4745 0
-174 186 4745 0
-186 -198 -4746 0
-186 -4746 0
198 -4746 0
186 198 -4746 0
186 -198 4746 0
186 -4747 0
186 198 -4747 0
-186 -198 -4747 0
-198 -4747 0
-186 198 4747 0
-198 -210 -4748 0
-198 -4748 0
210 -4748 0
198 210 -4748 0
198 -210 4748 0
198 -4749 0
198 210 -4749 0
-198 -210 -4749 0
-210 -4749 0
-198 210 4749 0
-4750 0
4751 -210 0
210 -4751 0
4752 -222 0
222 -4752 0
-4753 0
-222 -234 -4754 0
-222 -4754 0
234 -4754 0
222 234 -4754 0
222 -234 4754 0
222 -4755 0
222 234 -4755 0
-222 -234 -4755 0
-234 -4755 0
-222 234 4755 0
-234 -246 -4756 0
-234 -4756 0
246 -4756 0
234 246 -4756 0
234 -246 4756 0
234 -4757 0
234 246 -4757 0
-234 -246 -4757 0
-246 -4757 0
-234 246 4757 0
-246 -258 -4758 0
-246 -4758 0
258 -4758 0
246 258 -4758 0
246 -258 4758 0
246 -4759 0
246 258 -4759 0
-246 -258 -4759 0
-258 -4759 0
-246 258 4759 0
-258 -270 -4760 0
-258 -4760 0
270 -4760 0
258 270 -4760 0
258 -270 4760 0
258 -4761 0
258 270 -4761 0
-258 -270 -4761 0
-270 -4761 0
-258 270 4761 0
-270 -282 -4762 0
-270 -4762 0
282 -4762 0
270 282 -4762 0
270 -282 4762 0
270 -4763 0
270 282 -4763 0
-270 -282 -4763 0
-282 -4763 0
-270 282 4763 0
-4764 0
4765 -282 0
282 -4765 0
4766 -294 0
294 -4766 0
-4767 0
-294 -306 -4768 0
-294 -4768 0
306 -4768 0
294 306 -4768 0
294 -306 4768 0
294 -4769 0
294 306 -4769 0
-294 -306 -4769 0
-306 -4769 0
-294 306 4769 0
-306 -318 -4770 0
-306 -4770 0
318 -4770 0
306 318 -4770 0
306 -318 4770 0
306 -4771 0
306 318 -4771 0
-306 -318 -4771 0
-318 -4771 0
-306 318 4771 0
-318 -330 -4772 0
-318 -4772 0
330 -4772 0
318 330 -4772 0
318 -330 4772 0
318 -4773 0
318 330 -4773 0
-318 -330 -4773 0
-330 -4773 0
-318 330 4773 0
-330 -342 -4774 0
-330 -4774 0
342 -4774 0
330 342 -4774 0
330 -342 4774 0
330 -4775 0
330 342 -4775 0
-330 -342 -4775 0
-342 -4775 0
-330 342 4775 0
-342 -354 -4776 0
-342 -4776 0
354 -4776 0
342 354 -4776 0
342 -354 4776 0
342 -4777 0
342 354 -4777 0
-342 -354 -4777 0
-354 -4777 0
-342 354 4777 0
-4778 0
4779 -354 0
354 -4779 0
4780 -366 0
366 -4780 0
-4781 0
-366 -378 -4782 0
-366 -4782 0
378 -4782 0
366 378 -4782 0
366 -378 4782 0
366 -4783 0
366 378 -4783 0
-366 -378 -4783 0
-378 -4783 0
-366 378 4783 0
-378 -390 -4784 0
-378 -4784 0
390 -4784 0
378 390 -4784 0
378 -390 4784 0
378 -4785 0
378 390 -4785 0
-378 -390 -4785 0
-390 -4785 0
-378 390 4785 0
-390 -402 -4786 0
-390 -4786 0
402 -4786 0
390 402 -4786 0
390 -402 4786 0
390 -4787 0
390 402 -4787 0
-390 -402 -4787 0
-402 -4787 0
-390 402 4787 0
-402 -414 -4788 0
-402 -4788 0
414 -4788 0
402 414 -4788 0
402 -414 4788 0
402 -4789 0
402 414 -4789 0
-402 -414 -4789 0
-414 -4789 0
-402 414 4789 0
-414 -426 -4790 0
-414 -4790 0
426 -4790 0
414 426 -4790 0
414 -426 4790 0
414 -4791 0
414 426 -4791 0
-414 -426 -4791 0
-426 -4791 0
-414 426 4791 0
-4792 0
4793 -426 0
426 -4793 0
4794 -438 0
438 -4794 0
-4795 0
-438 -450 -4796 0
-438 -4796 0
450 -4796 0
438 450 -4796 0
438 -450 4796 0
438 -4797 0
438 450 -4797 0
-438 -450 -4797 0
-450 -4797 0
-438 450 4797 0
-450 -462 -4798 0
-450 -4798 0
462 -4798 0
450 462 -4798 0
450 -462 4798 0
450 -4799 0
450 462 -4799 0
-450 -462 -4799 0
-462 -4799 0
-450 462 4799 0
-462 -474 -4800 0
-462 -4800 0
474 -4800 0
462 474 -4800 0
462 -474 4800 0
462 -4801 0
462 474 -4801 0
-462 -474 -4801 0
-474 -4801 0
-462 474 4801 0
-474 -486 -4802 0
-474 -4802 0
486 -4802 0
474 486 -4802 0
474 -486 4802 0
474 -4803 0
474 486 -4803 0
-474 -486 -4803 0
-486 -4803 0
-474 486 4803 0
-486 -498 -4804 0
-486 -4804 0
498 -4804 0
486 498 -4804 0
486 -498 4804 0
486 -4805 0
486 498 -4805 0
-486 -498 -4805 0
-498 -4805 0
-486 498 4805 0
-4806 0
4807 -498 0
498 -4807 0
4808 -510 0
510 -4808 0
-4809 0
-510 -522 -4810 0
-510 -4810 0
522 -4810 0
510 522 -4810 0
510 -522 4810 0
510 -4811 0
510 522 -4811 0
-510 -522 -4811 0
-522 -4811 0
-510 522 4811 0
-522 -534 -4812 0
-522 -4812 0
534 -4812 0
522 534 -4812 0
522 -534 4812 0
522 -4813 0
522 534 -4813 0
-522 -534 -4813 0
-534 -4813 0
-522 534 4813 0
-534 -546 -4814 0
-534 -4814 0
546 -4814 0
534 546 -4814 0
534 -546 4814 0
534 -4815 0
534 546 -4815 0
-534 -546 -4815 0
-546 -4815 0
-534 546 4815 0
-546 -558 -4816 0
-546 -4816 0
558 -4816 0
546 558 -4816 0
546 -558 4816 0
546 -4817 0
546 558 -4817 0
-546 -558 -4817 0
-558 -4817 0
-546 558 4817 0
-558 -570 -4818 0
-558 -4818 0
570 -4818 0
558 570 -4818 0
558 -570 4818 0
558 -4819 0
558 570 -4819 0
-558 -570 -4819 0
-570 -4819 0
-558 570 4819 0
-570 -582 -4820 0
-570 -4820 0
582 -4820 0
570 582 -4820 0
570 -582 4820 0
570 -4821 0
570 582 -4821 0
-570 -582 -4821 0
-582 -4821 0
-570 582 4821 0
-582 -594 -4822 0
-582 -4822 0
594 -4822 0
582 594 -4822 0
582 -594 4822 0
582 -4823 0
582 594 -4823 0
-582 -594 -4823 0
-594 -4823 0
-582 594 4823 0
-594 -606 -4824 0
-594 -4824 0
606 -4824 0
594 606 -4824 0
594 -606 4824 0
594 -4825 0
594 606 -4825 0
-594 -606 -4825 0
-606 -4825 0
-594 606 4825 0
-606 -618 -4826 0
-606 -4826 0
618 -4826 0
606 618 -4826 0
606 -618 4826 0
606 -4827 0
606 618 -4827 0
-606 -618 -4827 0
-618 -4827 0
-606 618 4827 0
-618 -630 -4828 0
-618 -4828 0
630 -4828 0
618 630 -4828 0
618 -630 4828 0
618 -4829 0
618 630 -4829 0
-618 -630 -4829 0
-630 -4829 0
-618 630 4829 0
-630 -642 -4830 0
-630 -4830 0
642 -4830 0
630 642 -4830 0
630 -642 4830 0
630 -4831 0
630 642 -4831 0
-630 -642 -4831 0
-642 -4831 0
-630 642 4831 0
-642 -654 -4832 0
-642 -4832 0
654 -4832 0
642 654 -4832 0
642 -654 4832 0
642 -4833 0
642 654 -4833 0
-642 -654 -4833 0
-654 -4833 0
-642 654 4833 0
-654 -666 -4834 0
-654 -4834 0
666 -4834 0
654 666 -4834 0
654 -666 4834 0
654 -4835 0
654 666 -4835 0
-654 -666 -4835 0
-666 -4835 0
-654 666 4835 0
-666 -678 -4836 0
-666 -4836 0
678 -4836 0
666 678 -4836 0
666 -678 4836 0
666 -4837 0
666 678 -4837 0
-666 -678 -4837 0
-678 -4837 0
-666 678 4837 0
-678 -690 -4838 0
-678 -4838 0
690 -4838 0
678 690 -4838 0
678 -690 4838 0
678 -4839 0
678 690 -4839 0
-678 -690 -4839 0
-690 -4839 0
-678 690 4839 0
-690 -702 -4840 0
-690 -4840 0
702 -4840 0
690 702 -4840 0
690 -702 4840 0
690 -4841 0
690 702 -4841 0
-690 -702 -4841 0
-702 -4841 0
-690 702 4841 0
-702 -714 -4842 0
-702 -4842 0
714 -4842 0
702 714 -4842 0
702 -714 4842 0
702 -4843 0
702 714 -4843 0
-702 -714 -4843 0
-714 -4843 0
-702 714 4843 0
-714 -726 -4844 0
-714 -4844 0
726 -4844 0
714 726 -4844 0
714 -726 4844 0
714 -4845 0
714 726 -4845 0
-714 -726 -4845 0
-726 -4845 0
-714 726 4845 0
-726 -738 -4846 0
-726 -4846 0
738 -4846 0
726 738 -4846 0
726 -738 4846 0
726 -4847 0
726 738 -4847 0
-726 -738 -4847 0
-738 -4847 0
-726 738 4847 0
-738 -750 -4848 0
-738 -4848 0
750 -4848 0
738 750 -4848 0
738 -750 4848 0
738 -4849 0
738 750 -4849 0
-738 -750 -4849 0
-750 -4849 0
-738 750 4849 0
-750 -762 -4850 0
-750 -4850 0
762 -4850 0
750 762 -4850 0
750 -762 4850 0
750 -4851 0
750 762 -4851 0
-750 -762 -4851 0
-762 -4851 0
-750 762 4851 0
-762 -774 -4852 0
-762 -4852 0
774 -4852 0
762 774 -4852 0
762 -774 4852 0
762 -4853 0
762 774 -4853 0
-762 -774 -4853 0
-774 -4853 0
-762 774 4853 0
-774 -786 -4854 0
-774 -4854 0
786 -4854 0
774 786 -4854 0
774 -786 4854 0
774 -4855 0
774 786 -4855 0
-774 -786 -4855 0
-786 -4855 0
-774 786 4855 0
-786 -798 -4856 0
-786 -4856 0
798 -4856 0
786 798 -4856 0
786 -798 4856 0
786 -4857 0
786 798 -4857 0
-786 -798 -4857 0
-798 -4857 0
-786 798 4857 0
-798 -810 -4858 0
-798 -4858 0
810 -4858 0
798 810 -4858 0
798 -810 4858 0
798 -4859 0
798 810 -4859 0
-798 -810 -4859 0
-810 -4859 0
-798 810 4859 0
-4860 0
4861 -810 0
810 -4861 0
4862 -822 0
822 -4862 0
-4863 0
-822 -834 -4864 0
-822 -4864 0
834 -4864 0
822 834 -4864 0
822 -834 4864 0
822 -4865 0
822 834 -4865 0
-822 -834 -4865 0
-834 -4865 0
-822 834 4865 0
-834 -846 -4866 0
-834 -4866 0
846 -4866 0
834 846 -4866 0
834 -846 4866 0
834 -4867 0
834 846 -4867 0
-834 -846 -4867 0
-846 -4867 0
-834 846 4867 0
-846 -858 -4868 0
-846 -4868 0
858 -4868 0
846 858 -4868 0
846 -858 4868 0
846 -4869 0
846 858 -4869 0
-846 -858 -4869 0
-858 -4869 0
-846 858 4869 0
-858 -870 -4870 0
-858 -4870 0
870 -4870 0
858 870 -4870 0
858 -870 4870 0
858 -4871 0
858 870 -4871 0
-858 -870 -4871 0
-870 -4871 0
-858 870 4871 0
-870 -882 -4872 0
-870 -4872 0
882 -4872 0
870 882 -4872 0
870 -882 4872 0
870 -4873 0
870 882 -4873 0
-870 -882 -4873 0
-882 -4873 0
-870 882 4873 0
-882 -894 -4874 0
-882 -4874 0
894 -4874 0
882 894 -4874 0
882 -894 4874 0
882 -4875 0
882 894 -4875 0
-882 -894 -4875 0
-894 -4875 0
-882 894 4875 0
-894 -906 -4876 0
-894 -4876 0
906 -4876 0
894 906 -4876 0
894 -906 4876 0
894 -4877 0
894 906 -4877 0
-894 -906 -4877 0
-906 -4877 0
-894 906 4877 0
-906 -918 -4878 0
-906 -4878 0
918 -4878 0
906 918 -4878 0
906 -918 4878 0
906 -4879 0
906 918 -4879 0
-906 -918 -4879 0
-918 -4879 0
-906 918 4879 0
-918 -930 -4880 0
-918 -4880 0
930 -4880 0
918 930 -4880 0
918 -930 4880 0
918 -4881 0
918 930 -4881 0
-918 -930 -4881 0
-930 -4881 0
-918 930 4881 0
-930 -942 -4882 0
-930 -4882 0
942 -4882 0
930 942 -4882 0
930 -942 4882 0
930 -4883 0
930 942 -4883 0
-930 -942 -4883 0
-942 -4883 0
-930 942 4883 0
-942 -954 -4884 0
-942 -4884 0
954 -4884 0
942 954 -4884 0
942 -954 4884 0
942 -4885 0
942 954 -4885 0
-942 -954 -4885 0
-954 -4885 0
-942 954 4885 0
-954 -966 -4886 0
-954 -4886 0
966 -4886 0
954 966 -4886 0
954 -966 4886 0
954 -4887 0
954 966 -4887 0
-954 -966 -4887 0
-966 -4887 0
-954 966 4887 0
-966 -978 -4888 0
-966 -4888 0
978 -4888 0
966 978 -4888 0
966 -978 4888 0
966 -4889 0
966 978 -4889 0
-966 -978 -4889 0
-978 -4889 0
-966 978 4889 0
-978 -990 -4890 0
-978 -4890 0
990 -4890 0
978 990 -4890 0
978 -990 4890 0
978 -4891 0
978 990 -4891 0
-978 -990 -4891 0
-990 -4891 0
-978 990 4891 0
-990 -1002 -4892 0
-990 -4892 0
1002 -4892 0
990 1002 -4892 0
990 -1002 4892 0
990 -4893 0
990 1002 -4893 0
-990 -1002 -4893 0
-1002 -4893 0
-990 1002 4893 0
-1002 -1014 -4894 0
-1002 -4894 0
1014 -4894 0
1002 1014 -4894 0
1002 -1014 4894 0
1002 -4895 0
1002 1014 -4895 0
-1002 -1014 -4895 0
-1014 -4895 0
-1002 1014 4895 0
-1014 -1026 -4896 0
-1014 -4896 0
1026 -4896 0
1014 1026 -4896 0
1014 -1026 4896 0
1014 -4897 0
1014 1026 -4897 0
-1014 -1026 -4897 0
-1026 -4897 0
-1014 1026 4897 0
-1026 -1038 -4898 0
-1026 -4898 0
1038 -4898 0
1026 1038 -4898 0
1026 -1038 4898 0
1026 -4899 0
1026 1038 -4899 0
-1026 -1038 -4899 0
-1038 -4899 0
-1026 1038 4899 0
-1038 -1050 -4900 0
-1038 -4900 0
1050 -4900 0
1038 1050 -4900 0
1038 -1050 4900 0
1038 -4901 0
1038 1050 -4901 0
-1038 -1050 -4901 0
-1050 -4901 0
-1038 1050 4901 0
-1050 -1062 -4902 0
-1050 -4902 0
1062 -4902 0
1050 1062 -4902 0
1050 -1062 4902 0
1050 -4903 0
1050 1062 -4903 0
-1050 -1062 -4903 0
-1062 -4903 0
-1050 1062 4903 0
-1062 -1074 -4904 0
-1062 -4904 0
1074 -4904 0
1062 1074 -4904 0
1062 -1074 4904 0
1062 -4905 0
1062 1074 -4905 0
-1062 -1074 -4905 0
-1074 -4905 0
-1062 1074 4905 0
-1074 -1086 -4906 0
-1074 -4906 0
1086 -4906 0
1074 1086 -4906 0
1074 -1086 4906 0
1074 -4907 0
1074 1086 -4907 0
-1074 -1086 -4907 0
-1086 -4907 0
-1074 1086 4907 0
-1086 -1098 -4908 0
-1086 -4908 0
1098 -4908 0
1086 1098 -4908 0
1086 -1098 4908 0
1086 -4909 0
1086 1098 -4909 0
-1086 -1098 -4909 0
-1098 -4909 0
-1086 1098 4909 0
-1098 -1110 -4910 0
-1098 -4910 0
1110 -4910 0
1098 1110 -4910 0
1098 -1110 4910 0
1098 -4911 0
1098 1110 -4911 0
-1098 -1110 -4911 0
-1110 -4911 0
-1098 1110 4911 0
-1110 -1122 -4912 0
-1110 -4912 0
1122 -4912 0
1110 1122 -4912 0
1110 -1122 4912 0
1110 -4913 0
1110 1122 -4913 0
-1110 -1122 -4913 0
-1122 -4913 0
-1110 1122 4913 0
-4914 0
4915 -1122 0
1122 -4915 0
4916 -1134 0
1134 -4916 0
-4917 0
-1134 -1146 -4918 0
-1134 -4918 0
1146 -4918 0
1134 1146 -4918 0
1134 -1146 4918 0
1134 -4919 0
1134 1146 -4919 0
-1134 -1146 -4919 0
-1146 -4919 0
-1134 1146 4919 0
-1146 -1158 -4920 0
-1146 -4920 0
1158 -4920 0
1146 1158 -4920 0
1146 -1158 4920 0
1146 -4921 0
1146 1158 -4921 0
-1146 -1158 -4921 0
-1158 -4921 0
-1146 1158 4921 0
-1158 -1170 -4922 0
-1158 -4922 0
1170 -4922 0
1158 1170 -4922 0
1158 -1170 4922 0
1158 -4923 0
1158 1170 -4923 0
-1158 -1170 -4923 0
-1170 -4923 0
-1158 1170 4923 0
-1170 -1182 -4924 0
-1170 -4924 0
1182 -4924 0
1170 1182 -4924 0
1170 -1182 4924 0
1170 -4925 0
1170 1182 -4925 0
-1170 -1182 -4925 0
-1182 -4925 0
-1170 1182 4925 0
-1182 -1194 -4926 0
-1182 -4926 0
1194 -4926 0
1182 1194 -4926 0
1182 -1194 4926 0
1182 -4927 0
1182 1194 -4927 0
-1182 -1194 -4927 0
-1194 -4927 0
-1182 1194 4927 0
-1194 -1206 -4928 0
-1194 -4928 0
1206 -4928 0
1194 1206 -4928 0
1194 -1206 4928 0
1194 -4929 0
1194 1206 -4929 0
-1194 -1206 -4929 0
-1206 -4929 0
-1194 1206 4929 0
-1206 -1218 -4930 0
-1206 -4930 0
1218 -4930 0
1206 1218 -4930 0
1206 -1218 4930 0
1206 -4931 0
1206 1218 -4931 0
-1206 -1218 -4931 0
-1218 -4931 0
-1206 1218 4931 0
-1218 -1230 -4932 0
-1218 -4932 0
1230 -4932 0
1218 1230 -4932 0
1218 -1230 4932 0
1218 -4933 0
1218 1230 -4933 0
-1218 -1230 -4933 0
-1230 -4933 0
-1218 1230 4933 0
-1230 -1242 -4934 0
-1230 -4934 0
1242 -4934 0
1230 1242 -4934 0
1230 -1242 4934 0
1230 -4935 0
1230 1242 -4935 0
-1230 -1242 -4935 0
-1242 -4935 0
-1230 1242 4935 0
-1242 -1254 -4936 0
-1242 -4936 0
1254 -4936 0
1242 1254 -4936 0
1242 -1254 4936 0
1242 -4937 0
1242 1254 -4937 0
-1242 -1254 -4937 0
-1254 -4937 0
-1242 1254 4937 0
-1254 -1266 -4938 0
-1254 -4938 0
1266 -4938 0
1254 1266 -4938 0
1254 -1266 4938 0
1254 -4939 0
1254 1266 -4939 0
-1254 -1266 -4939 0
-1266 -4939 0
-1254 1266 4939 0
-1266 -1278 -4940 0
-1266 -4940 0
1278 -4940 0
1266 1278 -4940 0
1266 -1278 4940 0
1266 -4941 0
1266 1278 -4941 0
-1266 -1278 -4941 0
-1278 -4941 0
-1266 1278 4941 0
-1278 -1290 -4942 0
-1278 -4942 0
1290 -4942 0
1278 1290 -4942 0
1278 -1290 4942 0
1278 -4943 0
1278 1290 -4943 0
-1278 -1290 -4943 0
-1290 -4943 0
-1278 1290 4943 0
-1290 -1302 -4944 0
-1290 -4944 0
1302 -4944 0
1290 1302 -4944 0
1290 -1302 4944 0
1290 -4945 0
1290 1302 -4945 0
-1290 -1302 -4945 0
-1302 -4945 0
-1290 1302 4945 0
-1302 -1314 -4946 0
-1302 -4946 0
1314 -4946 0
1302 1314 -4946 0
1302 -1314 4946 0
1302 -4947 0
1302 1314 -4947 0
-1302 -1314 -4947 0
-1314 -4947 0
-1302 1314 4947 0
-1314 -1326 -4948 0
-1314 -4948 0
1326 -4948 0
1314 1326 -4948 0
1314 -1326 4948 0
1314 -4949 0
1314 1326 -4949 0
-1314 -1326 -4949 0
-1326 -4949 0
-1314 1326 4949 0
-1326 -1338 -4950 0
-1326 -4950 0
1338 -4950 0
1326 1338 -4950 0
1326 -1338 4950 0
1326 -4951 0
1326 1338 -4951 0
-1326 -1338 -4951 0
-1338 -4951 0
-1326 1338 4951 0
-1338 -1350 -4952 0
-1338 -4952 0
1350 -4952 0
1338 1350 -4952 0
1338 -1350 4952 0
1338 -4953 0
1338 1350 -4953 0
-1338 -1350 -4953 0
-1350 -4953 0
-1338 1350 4953 0
-1350 -1362 -4954 0
-1350 -4954 0
1362 -4954 0
1350 1362 -4954 0
1350 -1362 4954 0
1350 -4955 0
1350 1362 -4955 0
-1350 -1362 -4955 0
-1362 -4955 0
-1350 1362 4955 0
-1362 -1374 -4956 0
-1362 -4956 0
1374 -4956 0
1362 1374 -4956 0
1362 -1374 4956 0
1362 -4957 0
1362 1374 -4957 0
-1362 -1374 -4957 0
-1374 -4957 0
-1362 1374 4957 0
-1374 -1386 -4958 0
-1374 -4958 0
1386 -4958 0
1374 1386 -4958 0
1374 -1386 4958 0
1374 -4959 0
1374 1386 -4959 0
-1374 -1386 -4959 0
-1386 -4959 0
-1374 1386 4959 0
-1386 -1398 -4960 0
-1386 -4960 0
1398 -4960 0
1386 1398 -4960 0
1386 -1398 4960 0
1386 -4961 0
1386 1398 -4961 0
-1386 -1398 -4961 0
-1398 -4961 0
-1386 1398 4961 0
-1398 -1410 -4962 0
-1398 -4962 0
1410 -4962 0
1398 1410 -4962 0
1398 -1410 4962 0
1398 -4963 0
1398 1410 -4963 0
-1398 -1410 -4963 0
-1410 -4963 0
-1398 1410 4963 0
-1410 -1422 -4964 0
-1410 -4964 0
1422 -4964 0
1410 1422 -4964 0
1410 -1422 4964 0
1410 -4965 0
1410 1422 -4965 0
-1410 -1422 -4965 0
-1422 -4965 0
-1410 1422 4965 0
-1422 -1434 -4966 0
-1422 -4966 0
1434 -4966 0
1422 1434 -4966 0
1422 -1434 4966 0
1422 -4967 0
1422 1434 -4967 0
-1422 -1434 -4967 0
-1434 -4967 0
-1422 1434 4967 0
-4968 0
4969 -1434 0
1434 -4969 0
4970 -1446 0
1446 -4970 0
-4971 0
-1446 -1458 -4972 0
-1446 -4972 0
1458 -4972 0
1446 1458 -4972 0
1446 -1458 4972 0
1446 -4973 0
1446 1458 -4973 0
-1446 -1458 -4973 0
-1458 -4973 0
-1446 1458 4973 0
-1458 -1470 -4974 0
-1458 -4974 0
1470 -4974 0
1458 1470 -4974 0
1458 -1470 4974 0
1458 -4975 0
1458 1470 -4975 0
-1458 -1470 -4975 0
-1470 -4975 0
-1458 1470 4975 0
-1470 -1482 -4976 0
-1470 -4976 0
1482 -4976 0
1470 1482 -4976 0
1470 -1482 4976 0
1470 -4977 0
1470 1482 -4977 0
-1470 -1482 -4977 0
-1482 -4977 0
-1470 1482 4977 0
-1482 -1494 -4978 0
-1482 -4978 0
1494 -4978 0
1482 1494 -4978 0
1482 -1494 4978 0
1482 -4979 0
1482 1494 -4979 0
-1482 -1494 -4979 0
-1494 -4979 0
-1482 1494 4979 0
-1494 -1506 -4980 0
-1494 -4980 0
1506 -4980 0
1494 1506 -4980 0
1494 -1506 4980 0
1494 -4981 0
1494 1506 -4981 0
-1494 -1506 -4981 0
-1506 -4981 0
-1494 1506 4981 0
-4982 0
4983 -1506 0
1506 -4983 0
4984 -1518 0
1518 -4984 0
-4985 0
-1518 -1530 -4986 0
-1518 -4986 0
1530 -4986 0
1518 1530 -4986 0
1518 -1530 4986 0
1518 -4987 0
1518 1530 -4987 0
-1518 -1530 -4987 0
-1530 -4987 0
-1518 1530 4987 0
-1530 -1542 -4988 0
-1530 -4988 0
1542 -4988 0
1530 1542 -4988 0
1530 -1542 4988 0
1530 -4989 0
1530 1542 -4989 0
-1530 -1542 -4989 0
-1542 -4989 0
-1530 1542 4989 0
-1542 -1554 -4990 0
-1542 -4990 0
1554 -4990 0
1542 1554 -4990 0
1542 -1554 4990 0
1542 -4991 0
1542 1554 -4991 0
-1542 -1554 -4991 0
-1554 -4991 0
-1542 1554 4991 0
-1554 -1566 -4992 0
-1554 -4992 0
1566 -4992 0
1554 1566 -4992 0
1554 -1566 4992 0
1554 -4993 0
1554 1566 -4993 0
-1554 -1566 -4993 0
-1566 -4993 0
-1554 1566 4993 0
-1566 -1578 -4994 0
-1566 -4994 0
1578 -4994 0
1566 1578 -4994 0
1566 -1578 4994 0
1566 -4995 0
1566 1578 -4995 0
-1566 -1578 -4995 0
-1578 -4995 0
-1566 1578 4995 0
-4996 0
4997 -1578 0
1578 -4997 0
4998 -1590 0
1590 -4998 0
-4999 0
-1590 -1602 -5000 0
-1590 -5000 0
1602 -5000 0
1590 1602 -5000 0
1590 -1602 5000 0
1590 -5001 0
1590 1602 -5001 0
-1590 -1602 -5001 0
-1602 -5001 0
-1590 1602 5001 0
-1602 -1614 -5002 0
-1602 -5002 0
1614 -5002 0
1602 1614 -5002 0
1602 -1614 5002 0
1602 -5003 0
1602 1614 -5003 0
-1602 -1614 -5003 0
-1614 -5003 0
-1602 1614 5003 0
-1614 -1626 -5004 0
-1614 -5004 0
1626 -5004 0
1614 1626 -5004 0
1614 -1626 5004 0
1614 -5005 0
1614 1626 -5005 0
-1614 -1626 -5005 0
-1626 -5005 0
-1614 1626 5005 0
-1626 -1638 -5006 0
-1626 -5006 0
1638 -5006 0
1626 1638 -5006 0
1626 -1638 5006 0
1626 -5007 0
1626 1638 -5007 0
-1626 -1638 -5007 0
-1638 -5007 0
-1626 1638 5007 0
-1638 -1650 -5008 0
-1638 -5008 0
1650 -5008 0
1638 1650 -5008 0
1638 -1650 5008 0
1638 -5009 0
1638 1650 -5009 0
-1638 -1650 -5009 0
-1650 -5009 0
-1638 1650 5009 0
-5010 0
5011 -1650 0
1650 -5011 0
5012 -1662 0
1662 -5012 0
-5013 0
-1662 -1674 -5014 0
-1662 -5014 0
1674 -5014 0
1662 1674 -5014 0
1662 -1674 5014 0
1662 -5015 0
1662 1674 -5015 0
-1662 -1674 -5015 0
-1674 -5015 0
-1662 1674 5015 0
-1674 -1686 -5016 0
-1674 -5016 0
1686 -5016 0
1674 1686 -5016 0
1674 -1686 5016 0
1674 -5017 0
1674 1686 -5017 0
-1674 -1686 -5017 0
-1686 -5017 0
-1674 1686 5017 0
-1686 -1698 -5018 0
-1686 -5018 0
1698 -5018 0
1686 1698 -5018 0
1686 -1698 5018 0
1686 -5019 0
1686 1698 -5019 0
-1686 -1698 -5019 0
-1698 -5019 0
-1686 1698 5019 0
-1698 -1710 -5020 0
-1698 -5020 0
1710 -5020 0
1698 1710 -5020 0
1698 -1710 5020 0
1698 -5021 0
1698 1710 -5021 0
-1698 -1710 -5021 0
-1710 -5021 0
-1698 1710 5021 0
-1710 -1722 -5022 0
-1710 -5022 0
1722 -5022 0
1710 1722 -5022 0
1710 -1722 5022 0
1710 -5023 0
1710 1722 -5023 0
-1710 -1722 -5023 0
-1722 -5023 0
-1710 1722 5023 0
-5024 0
5025 -1722 0
1722 -5025 0
5026 -1734 0
1734 -5026 0
-5027 0
-1734 -1746 -5028 0
-1734 -5028 0
1746 -5028 0
1734 1746 -5028 0
1734 -1746 5028 0
1734 -5029 0
1734 1746 -5029 0
-1734 -1746 -5029 0
-1746 -5029 0
-1734 1746 5029 0
-1746 -1758 -5030 0
-1746 -5030 0
1758 -5030 0
1746 1758 -5030 0
1746 -1758 5030 0
1746 -5031 0
1746 1758 -5031 0
-1746 -1758 -5031 0
-1758 -5031 0
-1746 1758 5031 0
-1758 -1770 -5032 0
-1758 -5032 0
1770 -5032 0
1758 1770 -5032 0
1758 -1770 5032 0
1758 -5033 0
1758 1770 -5033 0
-1758 -1770 -5033 0
-1770 -5033 0
-1758 1770 5033 0
-1770 -1782 -5034 0
-1770 -5034 0
1782 -5034 0
1770 1782 -5034 0
1770 -1782 5034 0
1770 -5035 0
1770 1782 -5035 0
-1770 -1782 -5035 0
-1782 -5035 0
-1770 1782 5035 0
-1782 -1794 -5036 0
-1782 -5036 0
1794 -5036 0
1782 1794 -5036 0
1782 -1794 5036 0
1782 -5037 0
1782 1794 -5037 0
-1782 -1794 -5037 0
-1794 -5037 0
-1782 1794 5037 0
-5038 0
5039 -1794 0
1794 -5039 0
5040 -1806 0
1806 -5040 0
-5041 0
-1806 -1818 -5042 0
-1806 -5042 0
1818 -5042 0
1806 1818 -5042 0
1806 -1818 5042 0
1806 -5043 0
1806 1818 -5043 0
-1806 -1818 -5043 0
-1818 -5043 0
-1806 1818 5043 0
-1818 -1830 -5044 0
-1818 -5044 0
1830 -5044 0
1818 1830 -5044 0
1818 -1830 5044 0
1818 -5045 0
1818 1830 -5045 0
-1818 -1830 -5045 0
-1830 -5045 0
-1818 1830 5045 0
-1830 -1842 -5046 0
-1830 -5046 0
1842 -5046 0
1830 1842 -5046 0
1830 -1842 5046 0
1830 -5047 0
1830 1842 -5047 0
-1830 -1842 -5047 0
-1842 -5047 0
-1830 1842 5047 0
-1842 -1854 -5048 0
-1842 -5048 0
1854 -5048 0
1842 1854 -5048 0
1842 -1854 5048 0
1842 -5049 0
1842 1854 -5049 0
-1842 -1854 -5049 0
-1854 -5049 0
-1842 1854 5049 0
-1854 -1866 -5050 0
-1854 -5050 0
1866 -5050 0
1854 1866 -5050 0
1854 -1866 5050 0
1854 -5051 0
1854 1866 -5051 0
-1854 -1866 -5051 0
-1866 -5051 0
-1854 1866 5051 0
-5052 0
5053 -1866 0
1866 -5053 0
5054 -1878 0
1878 -5054 0
-5055 0
-1878 -1890 -5056 0
-1878 -5056 0
1890 -5056 0
1878 1890 -5056 0
1878 -1890 5056 0
1878 -5057 0
1878 1890 -5057 0
-1878 -1890 -5057 0
-1890 -5057 0
-1878 1890 5057 0
-1890 -1902 -5058 0
-1890 -5058 0
1902 -5058 0
1890 1902 -5058 0
1890 -1902 5058 0
1890 -5059 0
1890 1902 -5059 0
-1890 -1902 -5059 0
-1902 -5059 0
-1890 1902 5059 0
-1902 -1914 -5060 0
-1902 -5060 0
1914 -5060 0
1902 1914 -5060 0
1902 -1914 5060 0
1902 -5061 0
1902 1914 -5061 0
-1902 -1914 -5061 0
-1914 -5061 0
-1902 1914 5061 0
-1914 -1926 -5062 0
-1914 -5062 0
1926 -5062 0
1914 1926 -5062 0
1914 -1926 5062 0
1914 -5063 0
1914 1926 -5063 0
-1914 -1926 -5063 0
-1926 -5063 0
-1914 1926 5063 0
-1926 -1938 -5064 0
-1926 -5064 0
1938 -5064 0
1926 1938 -5064 0
1926 -1938 5064 0
1926 -5065 0
1926 1938 -5065 0
-1926 -1938 -5065 0
-1938 -5065 0
-1926 1938 5065 0
-5066 0
5067 -1938 0
1938 -5067 0
6 -2449 0
18 -2449 0
30 -2461 0
42 -2461 0
54 -2473 0
66 -2473 0
78 -2485 0
90 -2485 0
102 -2502 0
114 -2502 0
126 -2514 0
138 -2514 0
150 -2521 0
162 -2521 0
174 -2538 0
186 -2538 0
198 -2550 0
210 -2550 0
222 -2557 0
234 -2557 0
246 -2574 0
258 -2574 0
270 -2581 0
282 -2581 0
294 -2593 0
306 -2593 0
318 -2610 0
330 -2610 0
342 -2622 0
354 -2622 0
366 -2629 0
378 -2629 0
390 -2646 0
402 -2646 0
414 -2658 0
426 -2658 0
438 -2665 0
450 -2665 0
462 -2677 0
474 -2677 0
486 -2689 0
498 -2689 0
6 -2202 0
18 -2202 0
510 -2202 0
522 -2202 0
30 -2214 0
42 -2214 0
822 -2214 0
834 -2214 0
54 -2226 0
66 -2226 0
1134 -2226 0
1146 -2226 0
78 -2238 0
90 -2238 0
558 -2238 0
570 -2238 0
102 -2250 0
114 -2250 0
870 -2250 0
882 -2250 0
126 -2262 0
138 -2262 0
1182 -2262 0
1194 -2262 0
150 -2274 0
162 -2274 0
606 -2274 0
618 -2274 0
174 -2286 0
186 -2286 0
918 -2286 0
930 -2286 0
198 -2298 0
210 -2298 0
1230 -2298 0
1242 -2298 0
222 -2310 0
234 -2310 0
654 -2310 0
666 -2310 0
246 -2322 0
258 -2322 0
966 -2322 0
978 -2322 0
270 -2334 0
282 -2334 0
1278 -2334 0
1290 -2334 0
294 -2346 0
306 -2346 0
702 -2346 0
714 -2346 0
318 -2358 0
330 -2358 0
1014 -2358 0
1026 -2358 0
342 -2370 0
354 -2370 0
1326 -2370 0
1338 -2370 0
366 -2382 0
378 -2382 0
750 -2382 0
762 -2382 0
390 -2394 0
402 -2394 0
1062 -2394 0
1074 -2394 0
414 -2406 0
426 -2406 0
1374 -2406 0
1386 -2406 0
438 -2418 0
450 -2418 0
798 -2418 0
810 -2418 0
462 -2430 0
474 -2430 0
1110 -2430 0
1122 -2430 0
486 -2442 0
498 -2442 0
1422 -2442 0
1434 -2442 0
510 -1950 0
522 -1950 0
1446 -1950 0
1458 -1950 0
822 -1962 0
834 -1962 0
1470 -1962 0
1482 -1962 0
1134 -1974 0
1146 -1974 0
1494 -1974 0
1506 -1974 0
558 -1986 0
570 -1986 0
1518 -1986 0
1530 -1986 0
870 -1998 0
882 -1998 0
1542 -1998 0
1554 -1998 0
1182 -2010 0
1194 -2010 0
1566 -2010 0
1578 -2010 0
606 -2022 0
618 -2022 0
1590 -2022 0
1602 -2022 0
918 -2034 0
930 -2034 0
1614 -2034 0
1626 -2034 0
1230 -2046 0
1242 -2046 0
1638 -2046 0
1650 -2046 0
654 -2058 0
666 -2058 0
1662 -2058 0
1674 -2058 0
966 -2070 0
978 -2070 0
1686 -2070 0
1698 -2070 0
1278 -2082 0
1290 -2082 0
1710 -2082 0
1722 -2082 0
702 -2094 0
714 -2094 0
1734 -2094 0
1746 -2094 0
1014 -2106 0
1026 -2106 0
1758 -2106 0
1770 -2106 0
1326 -2118 0
1338 -2118 0
1782 -2118 0
1794 -2118 0
750 -2130 0
762 -2130 0
1806 -2130 0
1818 -2130 0
1062 -2142 0
1074 -2142 0
1830 -2142 0
1842 -2142 0
1374 -2154 0
1386 -2154 0
1854 -2154 0
1866 -2154 0
798 -2166 0
810 -2166 0
1878 -2166 0
1890 -2166 0
1110 -2178 0
1122 -2178 0
1902 -2178 0
1914 -2178 0
1422 -2190 0
1434 -2190 0
1926 -2190 0
1938 -2190 0
-2449 -2461 0
-2449 -2485 0
-2461 -2473 0
-2461 -2502 0
-2473 -2514 0
-2485 -2502 0
-2485 -2521 0
-2502 -2514 0
-2502 -2538 0
-2514 -2550 0
-2521 -2538 0
-2521 -2557 0
-2538 -2550 0
-2538 -2574 0
-2550 -2581 0
-2557 -2521 0
-2557 -2574 0
-2557 -2593 0
-2574 -2538 0
-2574 -2581 0
-2574 -2610 0
-2581 -2550 0
-2581 -2622 0
-2593 -2610 0
-2593 -2629 0
-2610 -2622 0
-2610 -2646 0
-2622 -2658 0
-2629 -2646 0
-2629 -2665 0
-2646 -2658 0
-2646 -2677 0
-2658 -2689 0
-2665 -2677 0
-2677 -2689 0
-2214 0
-2250 0
-2286 0
-2322 0
-2358 0
-2394 0
-2430 0
-1950 -1962 0
-1950 -1986 0
-1962 -1974 0
-1962 -1998 0
-1974 -2010 0
-1986 -1998 0
-1986 -2022 0
-1998 -2010 0
-1998 -2034 0
-2010 -2046 0
-2022 -2034 0
-2022 -2058 0
-2034 -2046 0
-2034 -2070 0
-2046 -2082 0
-2058 -2022 0
-2058 -2070 0
-2058 -2094 0
-2070 -2034 0
-2070 -2082 0
-2070 -2106 0
-2082 -2046 0
-2082 -2118 0
-2094 -2106 0
-2094 -2130 0
-2106 -2118 0
-2106 -2142 0
-2118 -2154 0
-2130 -2142 0
-2130 -2166 0
-2142 -2154 0
-2142 -2178 0
-2154 -2190 0
-2166 -2178 0
-2178 -2190 0
-4710 -4712 0
-4713 -4714 0
-4715 -4716 0
-4717 -4718 0
-4719 -4720 0
-4721 -4722 0
-4724 -4726 0
-4727 -4728 0
-4729 -4730 0
-4731 -4732 0
-4733 -4734 0
-4735 -4736 0
-4738 -4740 0
-4741 -4742 0
-4743 -4744 0
-4745 -4746 0
-4747 -4748 0
-4749 -4750 0
-4752 -4754 0
-4755 -4756 0
-4757 -4758 0
-4759 -4760 0
-4761 -4762 0
-4763 -4764 0
-4766 -4768 0
-4769 -4770 0
-4771 -4772 0
-4773 -4774 0
-4775 -4776 0
-4777 -4778 0
-4780 -4782 0
-4783 -4784 0
-4785 -4786 0
-4787 -4788 0
-4789 -4790 0
-4791 -4792 0
-4794 -4796 0
-4797 -4798 0
-4799 -4800 0
-4801 -4802 0
-4803 -4804 0
-4805 -4806 0
-4808 -4810 0
-4808 -4812 0
-4808 -4814 0
-4808 -4816 0
-4808 -4864 0
-4808 -4866 0
-4808 -4868 0
-4808 -4918 0
-4808 -4920 0
-4810 -4862 0
-4810 -4916 0
-4811 -4812 0
-4811 -4814 0
-4811 -4816 0
-4811 -4818 0
-4811 -4866 0
-4811 -4868 0
-4811 -4870 0
-4811 -4920 0
-4811 -4922 0
-4812 -4862 0
-4812 -4865 0
-4812 -4916 0
-4812 -4919 0
-4813 -4814 0
-4813 -4816 0
-4813 -4818 0
-4813 -4820 0
-4813 -4868 0
-4813 -4870 0
-4813 -4872 0
-4813 -4922 0
-4813 -4924 0
-4814 -4862 0
-4814 -4865 0
-4814 -4867 0
-4814 -4919 0
-4814 -4921 0
-4815 -4816 0
-4815 -4818 0
-4815 -4820 0
-4815 -4822 0
-4815 -4870 0
-4815 -4872 0
-4815 -4874 0
-4815 -4924 0
-4815 -4926 0
-4816 -4865 0
-4816 -4867 0
-4816 -4869 0
-4816 -4921 0
-4816 -4923 0
-4817 -4818 0
-4817 -4820 0
-4817 -4822 0
-4817 -4824 0
-4817 -4872 0
-4817 -4874 0
-4817 -4876 0
-4817 -4926 0
-4817 -4928 0
-4818 -4867 0
-4818 -4869 0
-4818 -4871 0
-4818 -4923 0
-4818 -4925 0
-4819 -4820 0
-4819 -4822 0
-4819 -4824 0
-4819 -4826 0
-4819 -4874 0
-4819 -4876 0
-4819 -4878 0
-4819 -4928 0
-4819 -4930 0
-4820 -4869 0
-4820 -4871 0
-4820 -4873 0
-4820 -4925 0
-4820 -4927 0
-4821 -4822 0
-4821 -4824 0
-4821 -4826 0
-4821 -4828 0
-4821 -4876 0
-4821 -4878 0
-4821 -4880 0
-4821 -4930 0
-4821 -4932 0
-4822 -4871 0
-4822 -4873 0
-4822 -4875 0
-4822 -4927 0
-4822 -4929 0
-4823 -4824 0
-4823 -4826 0
-4823 -4828 0
-4823 -4830 0
-4823 -4878 0
-4823 -4880 0
-4823 -4882 0
-4823 -4932 0
-4823 -4934 0
-4824 -4873 0
-4824 -4875 0
-4824 -4877 0
-4824 -4929 0
-4824 -4931 0
-4825 -4826 0
-4825 -4828 0
-4825 -4830 0
-4825 -4832 0
-4825 -4880 0
-4825 -4882 0
-4825 -4884 0
-4825 -4934 0
-4825 -4936 0
-4826 -4875 0
-4826 -4877 0
-4826 -4879 0
-4826 -4931 0
-4826 -4933 0
-4827 -4828 0
-4827 -4830 0
-4827 -4832 0
-4827 -4834 0
-4827 -4882 0
-4827 -4884 0
-4827 -4886 0
-4827 -4936 0
-4827 -4938 0
-4828 -4821 0
-4828 -4823 0
-4828 -4825 0
-4828 -4827 0
-4828 -4877 0
-4828 -4879 0
-4828 -4881 0
-4828 -4933 0
-4828 -4935 0
-4829 -4830 0
-4829 -4832 0
-4829 -4834 0
-4829 -4836 0
-4829 -4884 0
-4829 -4886 0
-4829 -4888 0
-4829 -4938 0
-4829 -4940 0
-4830 -4823 0
-4830 -4825 0
-4830 -4827 0
-4830 -4879 0
-4830 -4881 0
-4830 -4883 0
-4830 -4935 0
-4830 -4937 0
-4831 -4832 0
-4831 -4834 0
-4831 -4836 0
-4831 -4838 0
-4831 -4886 0
-4831 -4888 0
-4831 -4890 0
-4831 -4940 0
-4831 -4942 0
-4832 -4825 0
-4832 -4827 0
-4832 -4881 0
-4832 -4883 0
-4832 -4885 0
-4832 -4937 0
-4832 -4939 0
-4833 -4834 0
-4833 -4836 0
-4833 -4838 0
-4833 -4840 0
-4833 -4888 0
-4833 -4890 0
-4833 -4892 0
-4833 -4942 0
-4833 -4944 0
-4834 -4827 0
-4834 -4883 0
-4834 -4885 0
-4834 -4887 0
-4834 -4939 0
-4834 -4941 0
-4835 -4836 0
-4835 -4838 0
-4835 -4840 0
-4835 -4842 0
-4835 -4890 0
-4835 -4892 0
-4835 -4894 0
-4835 -4944 0
-4835 -4946 0
-4836 -4885 0
-4836 -4887 0
-4836 -4889 0
-4836 -4941 0
-4836 -4943 0
-4837 -4838 0
-4837 -4840 0
-4837 -4842 0
-4837 -4844 0
-4837 -4892 0
-4837 -4894 0
-4837 -4896 0
-4837 -4946 0
-4837 -4948 0
-4838 -4887 0
-4838 -4889 0
-4838 -4891 0
-4838 -4943 0
-4838 -4945 0
-4839 -4840 0
-4839 -4842 0
-4839 -4844 0
-4839 -4846 0
-4839 -4894 0
-4839 -4896 0
-4839 -4898 0
-4839 -4948 0
-4839 -4950 0
-4840 -4889 0
-4840 -4891 0
-4840 -4893 0
-4840 -4945 0
-4840 -4947 0
-4841 -4842 0
-4841 -4844 0
-4841 -4846 0
-4841 -4848 0
-4841 -4896 0
-4841 -4898 0
-4841 -4900 0
-4841 -4950 0
-4841 -4952 0
-4842 -4891 0
-4842 -4893 0
-4842 -4895 0
-4842 -4947 0
-4842 -4949 0
-4843 -4844 0
-4843 -4846 0
-4843 -4848 0
-4843 -4850 0
-4843 -4898 0
-4843 -4900 0
-4843 -4902 0
-4843 -4952 0
-4843 -4954 0
-4844 -4893 0
-4844 -4895 0
-4844 -4897 0
-4844 -4949 0
-4844 -4951 0
-4845 -4846 0
-4845 -4848 0
-4845 -4850 0
-4845 -4852 0
-4845 -4900 0
-4845 -4902 0
-4845 -4904 0
-4845 -4954 0
-4845 -4956 0
-4846 -4895 0
-4846 -4897 0
-4846 -4899 0
-4846 -4951 0
-4846 -4953 0
-4847 -4848 0
-4847 -4850 0
-4847 -4852 0
-4847 -4854 0
-4847 -4902 0
-4847 -4904 0
-4847 -4906 0
-4847 -4956 0
-4847 -4958 0
-4848 -4897 0
-4848 -4899 0
-4848 -4901 0
-4848 -4953 0
-4848 -4955 0
-4849 -4850 0
-4849 -4852 0
-4849 -4854 0
-4849 -4856 0
-4849 -4904 0
-4849 -4906 0
-4849 -4908 0
-4849 -4958 0
-4849 -4960 0
-4850 -4899 0
-4850 -4901 0
-4850 -4903 0
-4850 -4955 0
-4850 -4957 0
-4851 -4852 0
-4851 -4854 0
-4851 -4856 0
-4851 -4858 0
-4851 -4906 0
-4851 -4908 0
-4851 -4910 0
-4851 -4960 0
-4851 -4962 0
-4852 -4901 0
-4852 -4903 0
-4852 -4905 0
-4852 -4957 0
-4852 -4959 0
-4853 -4854 0
-4853 -4856 0
-4853 -4858 0
-4853 -4860 0
-4853 -4908 0
-4853 -4910 0
-4853 -4912 0
-4853 -4962 0
-4853 -4964 0
-4854 -4903 0
-4854 -4905 0
-4854 -4907 0
-4854 -4959 0
-4854 -4961 0
-4855 -4856 0
-4855 -4858 0
-4855 -4860 0
-4855 -4910 0
-4855 -4912 0
-4855 -4914 0
-4855 -4964 0
-4855 -4966 0
-4856 -4905 0
-4856 -4907 0
-4856 -4909 0
-4856 -4961 0
-4856 -4963 0
-4857 -4858 0
-4857 -4860 0
-4857 -4912 0
-4857 -4914 0
-4857 -4966 0
-4857 -4968 0
-4858 -4907 0
-4858 -4909 0
-4858 -4911 0
-4858 -4963 0
-4858 -4965 0
-4859 -4860 0
-4859 -4914 0
-4859 -4968 0
-4860 -4909 0
-4860 -4911 0
-4860 -4913 0
-4860 -4965 0
-4860 -4967 0
-4862 -4810 0
-4862 -4812 0
-4862 -4814 0
-4862 -4864 0
-4862 -4866 0
-4862 -4868 0
-4862 -4870 0
-4862 -4918 0
-4862 -4920 0
-4862 -4922 0
-4864 -4916 0
-4865 -4812 0
-4865 -4814 0
-4865 -4816 0
-4865 -4866 0
-4865 -4868 0
-4865 -4870 0
-4865 -4872 0
-4865 -4920 0
-4865 -4922 0
-4865 -4924 0
-4866 -4916 0
-4866 -4919 0
-4867 -4814 0
-4867 -4816 0
-4867 -4818 0
-4867 -4868 0
-4867 -4870 0
-4867 -4872 0
-4867 -4874 0
-4867 -4922 0
-4867 -4924 0
-4867 -4926 0
-4868 -4916 0
-4868 -4919 0
-4868 -4921 0
-4869 -4816 0
-4869 -4818 0
-4869 -4820 0
-4869 -4870 0
-4869 -4872 0
-4869 -4874 0
-4869 -4876 0
-4869 -4924 0
-4869 -4926 0
-4869 -4928 0
-4870 -4919 0
-4870 -4921 0
-4870 -4923 0
-4871 -4818 0
-4871 -4820 0
-4871 -4822 0
-4871 -4872 0
-4871 -4874 0
-4871 -4876 0
-4871 -4878 0
-4871 -4926 0
-4871 -4928 0
-4871 -4930 0
-4872 -4921 0
-4872 -4923 0
-4872 -4925 0
-4873 -4820 0
-4873 -4822 0
-4873 -4824 0
-4873 -4874 0
-4873 -4876 0
-4873 -4878 0
-4873 -4880 0
-4873 -4928 0
-4873 -4930 0
-4873 -4932 0
-4874 -4923 0
-4874 -4925 0
-4874 -4927 0
-4875 -4822 0
-4875 -4824 0
-4875 -4826 0
-4875 -4876 0
-4875 -4878 0
-4875 -4880 0
-4875 -4882 0
-4875 -4930 0
-4875 -4932 0
-4875 -4934 0
-4876 -4925 0
-4876 -4927 0
-4876 -4929 0
-4877 -4824 0
-4877 -4826 0
-4877 -4878 0
-4877 -4880 0
-4877 -4882 0
-4877 -4884 0
-4877 -4932 0
-4877 -4934 0
-4877 -4936 0
-4878 -4927 0
-4878 -4929 0
-4878 -4931 0
-4879 -4826 0
-4879 -4880 0
-4879 -4882 0
-4879 -4884 0
-4879 -4886 0
-4879 -4934 0
-4879 -4936 0
-4879 -4938 0
-4880 -4929 0
-4880 -4931 0
-4880 -4933 0
-4881 -4882 0
-4881 -4884 0
-4881 -4886 0
-4881 -4888 0
-4881 -4936 0
-4881 -4938 0
-4881 -4940 0
-4882 -4823 0
-4882 -4825 0
-4882 -4827 0
-4882 -4875 0
-4882 -4877 0
-4882 -4879 0
-4882 -4881 0
-4882 -4931 0
-4882 -4933 0
-4882 -4935 0
-4883 -4830 0
-4883 -4832 0
-4883 -4834 0
-4883 -4884 0
-4883 -4886 0
-4883 -4888 0
-4883 -4890 0
-4883 -4938 0
-4883 -4940 0
-4883 -4942 0
-4884 -4825 0
-4884 -4827 0
-4884 -4877 0
-4884 -4879 0
-4884 -4881 0
-4884 -4933 0
-4884 -4935 0
-4884 -4937 0
-4885 -4832 0
-4885 -4834 0
-4885 -4836 0
-4885 -4886 0
-4885 -4888 0
-4885 -4890 0
-4885 -4892 0
-4885 -4940 0
-4885 -4942 0
-4885 -4944 0
-4886 -4827 0
-4886 -4879 0
-4886 -4881 0
-4886 -4935 0
-4886 -4937 0
-4886 -4939 0
-4887 -4834 0
-4887 -4836 0
-4887 -4838 0
-4887 -4888 0
-4887 -4890 0
-4887 -4892 0
-4887 -4894 0
-4887 -4942 0
-4887 -4944 0
-4887 -4946 0
-4888 -4881 0
-4888 -4937 0
-4888 -4939 0
-4888 -4941 0
-4889 -4836 0
-4889 -4838 0
-4889 -4840 0
-4889 -4890 0
-4889 -4892 0
-4889 -4894 0
-4889 -4896 0
-4889 -4944 0
-4889 -4946 0
-4889 -4948 0
-4890 -4939 0
-4890 -4941 0
-4890 -4943 0
-4891 -4838 0
-4891 -4840 0
-4891 -4842 0
-4891 -4892 0
-4891 -4894 0
-4891 -4896 0
-4891 -4898 0
-4891 -4946 0
-4891 -4948 0
-4891 -4950 0
-4892 -4941 0
-4892 -4943 0
-4892 -4945 0
-4893 -4840 0
-4893 -4842 0
-4893 -4844 0
-4893 -4894 0
-4893 -4896 0
-4893 -4898 0
-4893 -4900 0
-4893 -4948 0
-4893 -4950 0
-4893 -4952 0
-4894 -4943 0
-4894 -4945 0
-4894 -4947 0
-4895 -4842 0
-4895 -4844 0
-4895 -4846 0
-4895 -4896 0
-4895 -4898 0
-4895 -4900 0
-4895 -4902 0
-4895 -4950 0
-4895 -4952 0
-4895 -4954 0
-4896 -4945 0
-4896 -4947 0
-4896 -4949 0
-4897 -4844 0
-4897 -4846 0
-4897 -4848 0
-4897 -4898 0
-4897 -4900 0
-4897 -4902 0
-4897 -4904 0
-4897 -4952 0
-4897 -4954 0
-4897 -4956 0
-4898 -4947 0
-4898 -4949 0
-4898 -4951 0
-4899 -4846 0
-4899 -4848 0
-4899 -4850 0
-4899 -4900 0
-4899 -4902 0
-4899 -4904 0
-4899 -4906 0
-4899 -4954 0
-4899 -4956 0
-4899 -4958 0
-4900 -4949 0
-4900 -4951 0
-4900 -4953 0
-4901 -4848 0
-4901 -4850 0
-4901 -4852 0
-4901 -4902 0
-4901 -4904 0
-4901 -4906 0
-4901 -4908 0
-4901 -4956 0
-4901 -4958 0
-4901 -4960 0
-4902 -4951 0
-4902 -4953 0
-4902 -4955 0
-4903 -4850 0
-4903 -4852 0
-4903 -4854 0
-4903 -4904 0
-4903 -4906 0
-4903 -4908 0
-4903 -4910 0
-4903 -4958 0
-4903 -4960 0
-4903 -4962 0
-4904 -4953 0
-4904 -4955 0
-4904 -4957 0
-4905 -4852 0
-4905 -4854 0
-4905 -4856 0
-4905 -4906 0
-4905 -4908 0
-4905 -4910 0
-4905 -4912 0
-4905 -4960 0
-4905 -4962 0
-4905 -4964 0
-4906 -4955 0
-4906 -4957 0
-4906 -4959 0
-4907 -4854 0
-4907 -4856 0
-4907 -4858 0
-4907 -4908 0
-4907 -4910 0
-4907 -4912 0
-4907 -4914 0
-4907 -4962 0
-4907 -4964 0
-4907 -4966 0
-4908 -4957 0
-4908 -4959 0
-4908 -4961 0
-4909 -4856 0
-4909 -4858 0
-4909 -4860 0
-4909 -4910 0
-4909 -4912 0
-4909 -4914 0
-4909 -4964 0
-4909 -4966 0
-4909 -4968 0
-4910 -4959 0
-4910 -4961 0
-4910 -4963 0
-4911 -4858 0
-4911 -4860 0
-4911 -4912 0
-4911 -4914 0
-4911 -4966 0
-4911 -4968 0
-4912 -4961 0
-4912 -4963 0
-4912 -4965 0
-4913 -4860 0
-4913 -4914 0
-4913 -4968 0
-4914 -4963 0
-4914 -4965 0
-4914 -4967 0
-4916 -4810 0
-4916 -4812 0
-4916 -4864 0
-4916 -4866 0
-4916 -4868 0
-4916 -4918 0
-4916 -4920 0
-4916 -4922 0
-4916 -4924 0
-4919 -4812 0
-4919 -4814 0
-4919 -4866 0
-4919 -4868 0
-4919 -4870 0
-4919 -4920 0
-4919 -4922 0
-4919 -4924 0
-4919 -4926 0
-4921 -4814 0
-4921 -4816 0
-4921 -4868 0
-4921 -4870 0
-4921 -4872 0
-4921 -4922 0
-4921 -4924 0
-4921 -4926 0
-4921 -4928 0
-4923 -4816 0
-4923 -4818 0
-4923 -4870 0
-4923 -4872 0
-4923 -4874 0
-4923 -4924 0
-4923 -4926 0
-4923 -4928 0
-4923 -4930 0
-4925 -4818 0
-4925 -4820 0
-4925 -4872 0
-4925 -4874 0
-4925 -4876 0
-4925 -4926 0
-4925 -4928 0
-4925 -4930 0
-4925 -4932 0
-4927 -4820 0
-4927 -4822 0
-4927 -4874 0
-4927 -4876 0
-4927 -4878 0
-4927 -4928 0
-4927 -4930 0
-4927 -4932 0
-4927 -4934 0
-4929 -4822 0
-4929 -4824 0
-4929 -4876 0
-4929 -4878 0
-4929 -4880 0
-4929 -4930 0
-4929 -4932 0
-4929 -4934 0
-4929 -4936 0
-4931 -4824 0
-4931 -4826 0
-4931 -4878 0
-4931 -4880 0
-4931 -4932 0
-4931 -4934 0
-4931 -4936 0
-4931 -4938 0
-4933 -4826 0
-4933 -4880 0
-4933 -4934 0
-4933 -4936 0
-4933 -4938 0
-4933 -4940 0
-4935 -4936 0
-4935 -4938 0
-4935 -4940 0
-4935 -4942 0
-4936 -4825 0
-4936 -4827 0
-4936 -4877 0
-4936 -4879 0
-4936 -4881 0
-4936 -4929 0
-4936 -4931 0
-4936 -4933 0
-4936 -4935 0
-4937 -4830 0
-4937 -4832 0
-4937 -4884 0
-4937 -4886 0
-4937 -4888 0
-4937 -4938 0
-4937 -4940 0
-4937 -4942 0
-4937 -4944 0
-4938 -4827 0
-4938 -4879 0
-4938 -4881 0
-4938 -4931 0
-4938 -4933 0
-4938 -4935 0
-4939 -4832 0
-4939 -4834 0
-4939 -4886 0
-4939 -4888 0
-4939 -4890 0
-4939 -4940 0
-4939 -4942 0
-4939 -4944 0
-4939 -4946 0
-4940 -4881 0
-4940 -4933 0
-4940 -4935 0
-4941 -4834 0
-4941 -4836 0
-4941 -4888 0
-4941 -4890 0
-4941 -4892 0
-4941 -4942 0
-4941 -4944 0
-4941 -4946 0
-4941 -4948 0
-4942 -4935 0
-4943 -4836 0
-4943 -4838 0
-4943 -4890 0
-4943 -4892 0
-4943 -4894 0
-4943 -4944 0
-4943 -4946 0
-4943 -4948 0
-4943 -4950 0
-4945 -4838 0
-4945 -4840 0
-4945 -4892 0
-4945 -4894 0
-4945 -4896 0
-4945 -4946 0
-4945 -4948 0
-4945 -4950 0
-4945 -4952 0
-4947 -4840 0
-4947 -4842 0
-4947 -4894 0
-4947 -4896 0
-4947 -4898 0
-4947 -4948 0
-4947 -4950 0
-4947 -4952 0
-4947 -4954 0
-4949 -4842 0
-4949 -4844 0
-4949 -4896 0
-4949 -4898 0
-4949 -4900 0
-4949 -4950 0
-4949 -4952 0
-4949 -4954 0
-4949 -4956 0
-4951 -4844 0
-4951 -4846 0
-4951 -4898 0
-4951 -4900 0
-4951 -4902 0
-4951 -4952 0
-4951 -4954 0
-4951 -4956 0
-4951 -4958 0
-4953 -4846 0
-4953 -4848 0
-4953 -4900 0
-4953 -4902 0
-4953 -4904 0
-4953 -4954 0
-4953 -4956 0
-4953 -4958 0
-4953 -4960 0
-4955 -4848 0
-4955 -4850 0
-4955 -4902 0
-4955 -4904 0
-4955 -4906 0
-4955 -4956 0
-4955 -4958 0
-4955 -4960 0
-4955 -4962 0
-4957 -4850 0
-4957 -4852 0
-4957 -4904 0
-4957 -4906 0
-4957 -4908 0
-4957 -4958 0
-4957 -4960 0
-4957 -4962 0
-4957 -4964 0
-4959 -4852 0
-4959 -4854 0
-4959 -4906 0
-4959 -4908 0
-4959 -4910 0
-4959 -4960 0
-4959 -4962 0
-4959 -4964 0
-4959 -4966 0
-4961 -4854 0
-4961 -4856 0
-4961 -4908 0
-4961 -4910 0
-4961 -4912 0
-4961 -4962 0
-4961 -4964 0
-4961 -4966 0
-4961 -4968 0
-4963 -4856 0
-4963 -4858 0
-4963 -4910 0
-4963 -4912 0
-4963 -4914 0
-4963 -4964 0
-4963 -4966 0
-4963 -4968 0
-4965 -4858 0
-4965 -4860 0
-4965 -4912 0
-4965 -4914 0
-4965 -4966 0
-4965 -4968 0
-4967 -4860 0
-4967 -4914 0
-4967 -4968 0
-4970 -4972 0
-4973 -4974 0
-4975 -4976 0
-4977 -4978 0
-4979 -4980 0
-4981 -4982 0
-4984 -4986 0
-4987 -4988 0
-4989 -4990 0
-4991 -4992 0
-4993 -4994 0
-4995 -4996 0
-4998 -5000 0
-5001 -5002 0
-5003 -5004 0
-5005 -5006 0
-5007 -5008 0
-5009 -5010 0
-5012 -5014 0
-5015 -5016 0
-5017 -5018 0
-5019 -5020 0
-5021 -5022 0
-5023 -5024 0
-5026 -5028 0
-5029 -5030 0
-5031 -5032 0
-5033 -5034 0
-5035 -5036 0
-5037 -5038 0
-5040 -5042 0
-5043 -5044 0
-5045 -5046 0
-5047 -5048 0
-5049 -5050 0
-5051 -5052 0
-5054 -5056 0
-5057 -5058 0
-5059 -5060 0
-5061 -5062 0
-5063 -5064 0
-5065 -5066 0
-4710 -4711 0
-4710 -4713 0
-4710 -4715 0
-4712 -4713 0
-4712 -4715 0
-4712 -4717 0
-4714 -4715 0
-4714 -4717 0
-4714 -4719 0
-4716 -4717 0
-4716 -4719 0
-4716 -4721 0
-4718 -4719 0
-4718 -4721 0
-4718 -4723 0
-4720 -4721 0
-4720 -4723 0
-4722 -4723 0
-4724 -4725 0
-4724 -4727 0
-4724 -4729 0
-4726 -4727 0
-4726 -4729 0
-4726 -4731 0
-4728 -4729 0
-4728 -4731 0
-4728 -4733 0
-4730 -4731 0
-4730 -4733 0
-4730 -4735 0
-4732 -4733 0
-4732 -4735 0
-4732 -4737 0
-4734 -4735 0
-4734 -4737 0
-4736 -4737 0
-4738 -4739 0
-4738 -4741 0
-4738 -4743 0
-4740 -4741 0
-4740 -4743 0
-4740 -4745 0
-4742 -4743 0
-4742 -4745 0
-4742 -4747 0
-4744 -4745 0
-4744 -4747 0
-4744 -4749 0
-4746 -4747 0
-4746 -4749 0
-4746 -4751 0
-4748 -4749 0
-4748 -4751 0
-4750 -4751 0
-4752 -4753 0
-4752 -4755 0
-4752 -4757 0
-4754 -4755 0
-4754 -4757 0
-4754 -4759 0
-4756 -4757 0
-4756 -4759 0
-4756 -4761 0
-4758 -4759 0
-4758 -4761 0
-4758 -4763 0
-4760 -4761 0
-4760 -4763 0
-4760 -4765 0
-4762 -4763 0
-4762 -4765 0
-4764 -4765 0
-4766 -4767 0
-4766 -4769 0
-4766 -4771 0
-4768 -4769 0
-4768 -4771 0
-4768 -4773 0
-4770 -4771 0
-4770 -4773 0
-4770 -4775 0
-4772 -4773 0
-4772 -4775 0
-4772 -4777 0
-4774 -4775 0
-4774 -4777 0
-4774 -4779 0
-4776 -4777 0
-4776 -4779 0
-4778 -4779 0
-4780 -4781 0
-4780 -4783 0
-4780 -4785 0
-4782 -4783 0
-4782 -4785 0
-4782 -4787 0
-4784 -4785 0
-4784 -4787 0
-4784 -4789 0
-4786 -4787 0
-4786 -4789 0
-4786 -4791 0
-4788 -4789 0
-4788 -4791 0
-4788 -4793 0
-4790 -4791 0
-4790 -4793 0
-4792 -4793 0
-4794 -4795 0
-4794 -4797 0
-4794 -4799 0
-4796 -4797 0
-4796 -4799 0
-4796 -4801 0
-4798 -4799 0
-4798 -4801 0
-4798 -4803 0
-4800 -4801 0
-4800 -4803 0
-4800 -4805 0
-4802 -4803 0
-4802 -4805 0
-4802 -4807 0
-4804 -4805 0
-4804 -4807 0
-4806 -4807 0
-4808 -4809 0
-4808 -4811 0
-4810 -4811 0
-4810 -4813 0
-4812 -4813 0
-4812 -4815 0
-4814 -4815 0
-4814 -4817 0
-4816 -4817 0
-4816 -4819 0
-4818 -4819 0
-4818 -4821 0
-4820 -4821 0
-4820 -4823 0
-4822 -4823 0
-4822 -4825 0
-4824 -4825 0
-4824 -4827 0
-4826 -4827 0
-4826 -4829 0
-4828 -4829 0
-4828 -4831 0
-4830 -4831 0
-4830 -4833 0
-4832 -4833 0
-4832 -4835 0
-4834 -4835 0
-4834 -4837 0
-4836 -4837 0
-4836 -4839 0
-4838 -4839 0
-4838 -4841 0
-4840 -4841 0
-4840 -4843 0
-4842 -4843 0
-4842 -4845 0
-4844 -4845 0
-4844 -4847 0
-4846 -4847 0
-4846 -4849 0
-4848 -4849 0
-4848 -4851 0
-4850 -4851 0
-4850 -4853 0
-4852 -4853 0
-4852 -4855 0
-4854 -4855 0
-4854 -4857 0
-4856 -4857 0
-4856 -4859 0
-4858 -4859 0
-4858 -4861 0
-4860 -4861 0
-4862 -4863 0
-4862 -4865 0
-4864 -4865 0
-4864 -4867 0
-4866 -4867 0
-4866 -4869 0
-4868 -4869 0
-4868 -4871 0
-4870 -4871 0
-4870 -4873 0
-4872 -4873 0
-4872 -4875 0
-4874 -4875 0
-4874 -4877 0
-4876 -4877 0
-4876 -4879 0
-4878 -4879 0
-4878 -4881 0
-4880 -4881 0
-4880 -4883 0
-4882 -4883 0
-4882 -4885 0
-4884 -4885 0
-4884 -4887 0
-4886 -4887 0
-4886 -4889 0
-4888 -4889 0
-4888 -4891 0
-4890 -4891 0
-4890 -4893 0
-4892 -4893 0
-4892 -4895 0
-4894 -4895 0
-4894 -4897 0
-4896 -4897 0
-4896 -4899 0
-4898 -4899 0
-4898 -4901 0
-4900 -4901 0
-4900 -4903 0
-4902 -4903 0
-4902 -4905 0
-4904 -4905 0
-4904 -4907 0
-4906 -4907 0
-4906 -4909 0
-4908 -4909 0
-4908 -4911 0
-4910 -4911 0
-4910 -4913 0
-4912 -4913 0
-4912 -4915 0
-4914 -4915 0
-4916 -4917 0
-4916 -4919 0
-4918 -4919 0
-4918 -4921 0
-4920 -4921 0
-4920 -4923 0
-4922 -4923 0
-4922 -4925 0
-4924 -4925 0
-4924 -4927 0
-4926 -4927 0
-4926 -4929 0
-4928 -4929 0
-4928 -4931 0
-4930 -4931 0
-4930 -4933 0
-4932 -4933 0
-4932 -4935 0
-4934 -4935 0
-4934 -4937 0
-4936 -4937 0
-4936 -4939 0
-4938 -4939 0
-4938 -4941 0
-4940 -4941 0
-4940 -4943 0
-4942 -4943 0
-4942 -4945 0
-4944 -4945 0
-4944 -4947 0
-4946 -4947 0
-4946 -4949 0
-4948 -4949 0
-4948 -4951 0
-4950 -4951 0
-4950 -4953 0
-4952 -4953 0
-4952 -4955 0
-4954 -4955 0
-4954 -4957 0
-4956 -4957 0
-4956 -4959 0
-4958 -4959 0
-4958 -4961 0
-4960 -4961 0
-4960 -4963 0
-4962 -4963 0
-4962 -4965 0
-4964 -4965 0
-4964 -4967 0
-4966 -4967 0
-4966 -4969 0
-4968 -4969 0
-4970 -4971 0
-4970 -4973 0
-4970 -4975 0
-4972 -4973 0
-4972 -4975 0
-4972 -4977 0
-4974 -4975 0
-4974 -4977 0
-4974 -4979 0
-4976 -4977 0
-4976 -4979 0
-4976 -4981 0
-4978 -4979 0
-4978 -4981 0
-4978 -4983 0
-4980 -4981 0
-4980 -4983 0
-4982 -4983 0
-4984 -4985 0
-4984 -4987 0
-4984 -4989 0
-4986 -4987 0
-4986 -4989 0
-4986 -4991 0
-4988 -4989 0
-4988 -4991 0
-4988 -4993 0
-4990 -4991 0
-4990 -4993 0
-4990 -4995 0
-4992 -4993 0
-4992 -4995 0
-4992 -4997 0
-4994 -4995 0
-4994 -4997 0
-4996 -4997 0
-4998 -4999 0
-4998 -5001 0
-4998 -5003 0
-5000 -5001 0
-5000 -5003 0
-5000 -5005 0
-5002 -5003 0
-5002 -5005 0
-5002 -5007 0
-5004 -5005 0
-5004 -5007 0
-5004 -5009 0
-5006 -5007 0
-5006 -5009 0
-5006 -5011 0
-5008 -5009 0
-5008 -5011 0
-5010 -5011 0
-5012 -5013 0
-5012 -5015 0
-5012 -5017 0
-5014 -5015 0
-5014 -5017 0
-5014 -5019 0
-5016 -5017 0
-5016 -5019 0
-5016 -5021 0
-5018 -5019 0
-5018 -5021 0
-5018 -5023 0
-5020 -5021 0
-5020 -5023 0
-5020 -5025 0
-5022 -5023 0
-5022 -5025 0
-5024 -5025 0
-5026 -5027 0
-5026 -5029 0
-5026 -5031 0
-5028 -5029 0
-5028 -5031 0
-5028 -5033 0
-5030 -5031 0
-5030 -5033 0
-5030 -5035 0
-5032 -5033 0
-5032 -5035 0
-5032 -5037 0
-5034 -5035 0
-5034 -5037 0
-5034 -5039 0
-5036 -5037 0
-5036 -5039 0
-5038 -5039 0
-5040 -5041 0
-5040 -5043 0
-5040 -5045 0
-5042 -5043 0
-5042 -5045 0
-5042 -5047 0
-5044 -5045 0
-5044 -5047 0
-5044 -5049 0
-5046 -5047 0
-5046 -5049 0
-5046 -5051 0
-5048 -5049 0
-5048 -5051 0
-5048 -5053 0
-5050 -5051 0
-5050 -5053 0
-5052 -5053 0
-5054 -5055 0
-5054 -5057 0
-5054 -5059 0
-5056 -5057 0
-5056 -5059 0
-5056 -5061 0
-5058 -5059 0
-5058 -5061 0
-5058 -5063 0
-5060 -5061 0
-5060 -5063 0
-5060 -5065 0
-5062 -5063 0
-5062 -5065 0
-5062 -5067 0
-5064 -5065 0
-5064 -5067 0
-5066 -5067 0
-510 -822 0
-558 -870 0
-606 -918 0
-654 -966 0
-702 -1014 0
-750 -1062 0
-798 -1110 0
-822 -1134 0
-870 -1182 0
-918 -1230 0
-966 -1278 0
-1014 -1326 0
-1062 -1374 0
-1110 -1422 0
-6 0
-18 0
-2202 0
-30 0
-42 0
-54 0
-66 0
-2226 0
-438 0
-450 0
-2418 0
-462 0
-474 0
-486 0
-498 0
-2442 0
-1446 0
-1458 0
-1950 0
-2706 0
-1470 0
-1482 0
-1962 0
-2790 0
-1494 0
-1506 0
-1974 0
-2874 0
-1878 0
-1890 0
-2166 0
-2778 0
-1902 0
-1914 0
-2178 0
-2862 0
-1926 0
-1938 0
-2190 0
-2946 0
