p cnf 5067 9435
1 0
-2 0
3 0
4 0
-5 0
6 0
7 0
-8 0
9 0
-10 0
11 0
12 0
-13 0
14 0
15 0
-16 0
17 0
-18 0
19 0
20 0
-21 0
22 0
23 0
-24 0
25 0
-26 0
27 0
28 0
-29 0
30 0
31 0
-32 0
33 0
-34 0
35 0
36 0
-37 0
38 0
39 0
-40 0
41 0
-42 0
43 0
44 0
-45 0
46 0
47 0
-48 0
49 50 -51 0
52 51 0
-53 0
-49 54 0
-52 54 0
55 -54 0
-49 -52 0
-50 56 0
-55 56 0
57 -56 0
-50 -55 0
58 59 -60 0
61 60 0
-62 0
-58 63 0
-61 63 0
64 -63 0
-58 -61 0
-59 65 0
-64 65 0
66 -65 0
-59 -64 0
67 68 -69 0
70 69 0
-71 0
-67 72 0
-70 72 0
73 -72 0
-67 -70 0
-68 74 0
-73 74 0
75 -74 0
-68 -73 0
76 77 -78 0
79 78 0
-80 0
-76 81 0
-79 81 0
82 -81 0
-76 -79 0
-77 83 0
-82 83 0
84 -83 0
-77 -82 0
85 -86 0
87 -88 0
87 -89 0
85 87 -90 0
91 90 0
-92 0
-85 93 0
-91 93 0
94 -93 0
-85 -91 0
-87 95 0
-94 95 0
96 -95 0
-87 -94 0
97 98 -99 0
100 99 0
-101 0
-97 102 0
-100 102 0
103 -102 0
-97 -100 0
-98 104 0
-103 104 0
105 -104 0
-98 -103 0
106 107 -108 0
109 108 0
-110 0
-106 111 0
-109 111 0
112 -111 0
-106 -109 0
-107 113 0
-112 113 0
114 -113 0
-107 -112 0
115 116 -117 0
118 117 0
-119 0
-115 120 0
-118 120 0
121 -120 0
-115 -118 0
-116 122 0
-121 122 0
123 -122 0
-116 -121 0
124 125 -126 0
127 126 0
-128 0
-124 129 0
-127 129 0
130 -129 0
-124 -127 0
-125 131 0
-130 131 0
132 -131 0
-125 -130 0
133 134 -135 0
136 135 0
-137 0
-133 138 0
-136 138 0
139 -138 0
-133 -136 0
-134 140 0
-139 140 0
141 -140 0
-134 -139 0
142 -143 0
144 -145 0
144 -146 0
142 144 -147 0
148 147 0
-149 0
-142 150 0
-148 150 0
151 -150 0
-142 -148 0
-144 152 0
-151 152 0
153 -152 0
-144 -151 0
154 155 -156 0
157 156 0
-158 0
-154 159 0
-157 159 0
160 -159 0
-154 -157 0
-155 161 0
-160 161 0
162 -161 0
-155 -160 0
163 164 -165 0
166 165 0
-167 0
-163 168 0
-166 168 0
169 -168 0
-163 -166 0
-164 170 0
-169 170 0
171 -170 0
-164 -169 0
172 173 -174 0
175 174 0
-176 0
-172 177 0
-175 177 0
178 -177 0
-172 -175 0
-173 179 0
-178 179 0
180 -179 0
-173 -178 0
181 182 -183 0
184 183 0
-185 0
-181 186 0
-184 186 0
187 -186 0
-181 -184 0
-182 188 0
-187 188 0
189 -188 0
-182 -187 0
190 191 -192 0
193 192 0
-194 0
-190 195 0
-193 195 0
196 -195 0
-190 -193 0
-191 197 0
-196 197 0
198 -197 0
-191 -196 0
199 200 -201 0
202 201 0
-203 0
-199 204 0
-202 204 0
205 -204 0
-199 -202 0
-200 206 0
-205 206 0
207 -206 0
-200 -205 0
208 209 -210 0
211 210 0
-212 0
-208 213 0
-211 213 0
214 -213 0
-208 -211 0
-209 215 0
-214 215 0
216 -215 0
-209 -214 0
217 218 -219 0
220 219 0
-221 0
-217 222 0
-220 222 0
223 -222 0
-217 -220 0
-218 224 0
-223 224 0
225 -224 0
-218 -223 0
226 227 -228 0
229 228 0
-230 0
-226 231 0
-229 231 0
232 -231 0
-226 -229 0
-227 233 0
-232 233 0
234 -233 0
-227 -232 0
235 236 -237 0
238 237 0
-239 0
-235 240 0
-238 240 0
241 -240 0
-235 -238 0
-236 242 0
-241 242 0
243 -242 0
-236 -241 0
244 245 -246 0
247 246 0
-248 0
-244 249 0
-247 249 0
250 -249 0
-244 -247 0
-245 251 0
-250 251 0
252 -251 0
-245 -250 0
253 -254 0
255 -256 0
255 -257 0
253 255 -258 0
259 258 0
-260 0
-253 261 0
-259 261 0
262 -261 0
-253 -259 0
-255 263 0
-262 263 0
264 -263 0
-255 -262 0
265 266 -267 0
268 267 0
-269 0
-265 270 0
-268 270 0
271 -270 0
-265 -268 0
-266 272 0
-271 272 0
273 -272 0
-266 -271 0
274 275 -276 0
277 276 0
-278 0
-274 279 0
-277 279 0
280 -279 0
-274 -277 0
-275 281 0
-280 281 0
282 -281 0
-275 -280 0
283 284 -285 0
286 285 0
-287 0
-283 288 0
-286 288 0
289 -288 0
-283 -286 0
-284 290 0
-289 290 0
291 -290 0
-284 -289 0
292 293 -294 0
295 294 0
-296 0
-292 297 0
-295 297 0
298 -297 0
-292 -295 0
-293 299 0
-298 299 0
300 -299 0
-293 -298 0
301 302 -303 0
304 303 0
-305 0
-301 306 0
-304 306 0
307 -306 0
-301 -304 0
-302 308 0
-307 308 0
309 -308 0
-302 -307 0
310 -311 0
312 -313 0
312 -314 0
310 312 -315 0
316 315 0
-317 0
-310 318 0
-316 318 0
319 -318 0
-310 -316 0
-312 320 0
-319 320 0
321 -320 0
-312 -319 0
322 323 -324 0
325 324 0
-326 0
-322 327 0
-325 327 0
328 -327 0
-322 -325 0
-323 329 0
-328 329 0
330 -329 0
-323 -328 0
331 0
-332 0
333 0
334 0
-335 0
336 0
337 0
-338 0
339 0
-340 0
341 0
342 0
-343 0
344 0
345 0
-346 0
347 0
-348 0
349 0
350 0
-351 0
352 0
353 0
-354 0
355 0
-356 0
357 0
358 0
-359 0
360 0
361 0
-362 0
363 0
-364 0
365 0
366 0
-367 0
368 0
369 0
-370 0
371 0
-372 0
373 0
374 0
-375 0
376 0
377 0
-378 0
379 380 -381 0
382 381 0
-383 0
-379 384 0
-382 384 0
385 -384 0
-379 -382 0
-380 386 0
-385 386 0
387 -386 0
-380 -385 0
388 389 -390 0
391 390 0
-392 0
-388 393 0
-391 393 0
394 -393 0
-388 -391 0
-389 395 0
-394 395 0
396 -395 0
-389 -394 0
397 398 -399 0
400 399 0
-401 0
-397 402 0
-400 402 0
403 -402 0
-397 -400 0
-398 404 0
-403 404 0
405 -404 0
-398 -403 0
406 407 -408 0
409 408 0
-410 0
-406 411 0
-409 411 0
412 -411 0
-406 -409 0
-407 413 0
-412 413 0
414 -413 0
-407 -412 0
415 416 -417 0
418 417 0
-419 0
-415 420 0
-418 420 0
421 -420 0
-415 -418 0
-416 422 0
-421 422 0
423 -422 0
-416 -421 0
424 425 -426 0
427 426 0
-428 0
-424 429 0
-427 429 0
430 -429 0
-424 -427 0
-425 431 0
-430 431 0
432 -431 0
-425 -430 0
433 434 -435 0
436 435 0
-437 0
-433 438 0
-436 438 0
439 -438 0
-433 -436 0
-434 440 0
-439 440 0
441 -440 0
-434 -439 0
442 443 -444 0
445 444 0
-446 0
-442 447 0
-445 447 0
448 -447 0
-442 -445 0
-443 449 0
-448 449 0
450 -449 0
-443 -448 0
451 -452 0
453 -454 0
453 -455 0
451 453 -456 0
457 456 0
-458 0
-451 459 0
-457 459 0
460 -459 0
-451 -457 0
-453 461 0
-460 461 0
462 -461 0
-453 -460 0
463 464 -465 0
466 465 0
-467 0
-463 468 0
-466 468 0
469 -468 0
-463 -466 0
-464 470 0
-469 470 0
471 -470 0
-464 -469 0
472 473 -474 0
475 474 0
-476 0
-472 477 0
-475 477 0
478 -477 0
-472 -475 0
-473 479 0
-478 479 0
480 -479 0
-473 -478 0
481 482 -483 0
484 483 0
-485 0
-481 486 0
-484 486 0
487 -486 0
-481 -484 0
-482 488 0
-487 488 0
489 -488 0
-482 -487 0
490 -491 0
492 -493 0
492 -494 0
490 492 -495 0
496 495 0
-497 0
-490 498 0
-496 498 0
499 -498 0
-490 -496 0
-492 500 0
-499 500 0
501 -500 0
-492 -499 0
502 503 -504 0
505 504 0
-506 0
-502 507 0
-505 507 0
508 -507 0
-502 -505 0
-503 509 0
-508 509 0
510 -509 0
-503 -508 0
511 512 -513 0
514 513 0
-515 0
-511 516 0
-514 516 0
517 -516 0
-511 -514 0
-512 518 0
-517 518 0
519 -518 0
-512 -517 0
520 521 -522 0
523 522 0
-524 0
-520 525 0
-523 525 0
526 -525 0
-520 -523 0
-521 527 0
-526 527 0
528 -527 0
-521 -526 0
529 -530 0
531 -532 0
531 -533 0
529 531 -534 0
535 534 0
-536 0
-529 537 0
-535 537 0
538 -537 0
-529 -535 0
-531 539 0
-538 539 0
540 -539 0
-531 -538 0
541 542 -543 0
544 543 0
-545 0
-541 546 0
-544 546 0
547 -546 0
-541 -544 0
-542 548 0
-547 548 0
549 -548 0
-542 -547 0
550 551 -552 0
553 552 0
-554 0
-550 555 0
-553 555 0
556 -555 0
-550 -553 0
-551 557 0
-556 557 0
558 -557 0
-551 -556 0
559 560 -561 0
562 561 0
-563 0
-559 564 0
-562 564 0
565 -564 0
-559 -562 0
-560 566 0
-565 566 0
567 -566 0
-560 -565 0
568 -569 0
570 -571 0
570 -572 0
568 570 -573 0
574 573 0
-575 0
-568 576 0
-574 576 0
577 -576 0
-568 -574 0
-570 578 0
-577 578 0
579 -578 0
-570 -577 0
580 581 -582 0
583 582 0
-584 0
-580 585 0
-583 585 0
586 -585 0
-580 -583 0
-581 587 0
-586 587 0
588 -587 0
-581 -586 0
589 590 -591 0
592 591 0
-593 0
-589 594 0
-592 594 0
595 -594 0
-589 -592 0
-590 596 0
-595 596 0
597 -596 0
-590 -595 0
598 599 -600 0
601 600 0
-602 0
-598 603 0
-601 603 0
604 -603 0
-598 -601 0
-599 605 0
-604 605 0
606 -605 0
-599 -604 0
607 608 -609 0
610 609 0
-611 0
-607 612 0
-610 612 0
613 -612 0
-607 -610 0
-608 614 0
-613 614 0
615 -614 0
-608 -613 0
616 617 -618 0
619 618 0
-620 0
-616 621 0
-619 621 0
622 -621 0
-616 -619 0
-617 623 0
-622 623 0
624 -623 0
-617 -622 0
625 626 -627 0
628 627 0
-629 0
-625 630 0
-628 630 0
631 -630 0
-625 -628 0
-626 632 0
-631 632 0
633 -632 0
-626 -631 0
634 635 -636 0
637 636 0
-638 0
-634 639 0
-637 639 0
640 -639 0
-634 -637 0
-635 641 0
-640 641 0
642 -641 0
-635 -640 0
643 644 -645 0
646 645 0
-647 0
-643 648 0
-646 648 0
649 -648 0
-643 -646 0
-644 650 0
-649 650 0
651 -650 0
-644 -649 0
652 653 -654 0
655 654 0
-656 0
-652 657 0
-655 657 0
658 -657 0
-652 -655 0
-653 659 0
-658 659 0
660 -659 0
-653 -658 0
661 662 -663 0
664 663 0
-665 0
-661 666 0
-664 666 0
667 -666 0
-661 -664 0
-662 668 0
-667 668 0
669 -668 0
-662 -667 0
670 671 -672 0
673 672 0
-674 0
-670 675 0
-673 675 0
676 -675 0
-670 -673 0
-671 677 0
-676 677 0
678 -677 0
-671 -676 0
679 680 -681 0
682 681 0
-683 0
-679 684 0
-682 684 0
685 -684 0
-679 -682 0
-680 686 0
-685 686 0
687 -686 0
-680 -685 0
688 689 -690 0
691 690 0
-692 0
-688 693 0
-691 693 0
694 -693 0
-688 -691 0
-689 695 0
-694 695 0
696 -695 0
-689 -694 0
697 698 -699 0
700 699 0
-701 0
-697 702 0
-700 702 0
703 -702 0
-697 -700 0
-698 704 0
-703 704 0
705 -704 0
-698 -703 0
706 707 -708 0
709 708 0
-710 0
-706 711 0
-709 711 0
712 -711 0
-706 -709 0
-707 713 0
-712 713 0
714 -713 0
-707 -712 0
715 -716 0
717 -718 0
715 717 -719 0
720 719 0
-721 0
-715 722 0
-720 722 0
723 -722 0
-715 -720 0
-717 724 0
-723 724 0
725 -724 0
-717 -723 0
726 727 -728 0
729 728 0
-730 0
-726 731 0
-729 731 0
732 -731 0
-726 -729 0
-727 733 0
-732 733 0
734 -733 0
-727 -732 0
735 -736 0
737 -738 0
737 -739 0
735 737 -740 0
741 740 0
-742 0
-735 743 0
-741 743 0
744 -743 0
-735 -741 0
-737 745 0
-744 745 0
746 -745 0
-737 -744 0
747 748 -749 0
750 749 0
-751 0
-747 752 0
-750 752 0
753 -752 0
-747 -750 0
-748 754 0
-753 754 0
755 -754 0
-748 -753 0
756 757 -758 0
759 758 0
-760 0
-756 761 0
-759 761 0
762 -761 0
-756 -759 0
-757 763 0
-762 763 0
764 -763 0
-757 -762 0
765 766 -767 0
768 767 0
-769 0
-765 770 0
-768 770 0
771 -770 0
-765 -768 0
-766 772 0
-771 772 0
773 -772 0
-766 -771 0
774 -775 0
776 -777 0
776 -778 0
774 776 -779 0
780 779 0
-781 0
-774 782 0
-780 782 0
783 -782 0
-774 -780 0
-776 784 0
-783 784 0
785 -784 0
-776 -783 0
786 787 -788 0
789 788 0
-790 0
-786 791 0
-789 791 0
792 -791 0
-786 -789 0
-787 793 0
-792 793 0
794 -793 0
-787 -792 0
795 796 -797 0
798 797 0
-799 0
-795 800 0
-798 800 0
801 -800 0
-795 -798 0
-796 802 0
-801 802 0
803 -802 0
-796 -801 0
804 805 -806 0
807 806 0
-808 0
-804 809 0
-807 809 0
810 -809 0
-804 -807 0
-805 811 0
-810 811 0
812 -811 0
-805 -810 0
813 814 -815 0
816 815 0
-817 0
-813 818 0
-816 818 0
819 -818 0
-813 -816 0
-814 820 0
-819 820 0
821 -820 0
-814 -819 0
822 823 -824 0
825 824 0
-826 0
-822 827 0
-825 827 0
828 -827 0
-822 -825 0
-823 829 0
-828 829 0
830 -829 0
-823 -828 0
831 832 -833 0
834 833 0
-835 0
-831 836 0
-834 836 0
837 -836 0
-831 -834 0
-832 838 0
-837 838 0
839 -838 0
-832 -837 0
840 841 -842 0
843 842 0
-844 0
-840 845 0
-843 845 0
846 -845 0
-840 -843 0
-841 847 0
-846 847 0
848 -847 0
-841 -846 0
849 850 -851 0
852 851 0
-853 0
-849 854 0
-852 854 0
855 -854 0
-849 -852 0
-850 856 0
-855 856 0
857 -856 0
-850 -855 0
858 859 -860 0
861 860 0
-862 0
-858 863 0
-861 863 0
864 -863 0
-858 -861 0
-859 865 0
-864 865 0
866 -865 0
-859 -864 0
867 868 -869 0
870 869 0
-871 0
-867 872 0
-870 872 0
873 -872 0
-867 -870 0
-868 874 0
-873 874 0
875 -874 0
-868 -873 0
876 877 -878 0
879 878 0
-880 0
-876 881 0
-879 881 0
882 -881 0
-876 -879 0
-877 883 0
-882 883 0
884 -883 0
-877 -882 0
885 886 -887 0
888 887 0
-889 0
-885 890 0
-888 890 0
891 -890 0
-885 -888 0
-886 892 0
-891 892 0
893 -892 0
-886 -891 0
894 895 -896 0
897 896 0
-898 0
-894 899 0
-897 899 0
900 -899 0
-894 -897 0
-895 901 0
-900 901 0
902 -901 0
-895 -900 0
903 904 -905 0
906 905 0
-907 0
-903 908 0
-906 908 0
909 -908 0
-903 -906 0
-904 910 0
-909 910 0
911 -910 0
-904 -909 0
912 913 -914 0
915 914 0
-916 0
-912 917 0
-915 917 0
918 -917 0
-912 -915 0
-913 919 0
-918 919 0
920 -919 0
-913 -918 0
921 922 -923 0
924 923 0
-925 0
-921 926 0
-924 926 0
927 -926 0
-921 -924 0
-922 928 0
-927 928 0
929 -928 0
-922 -927 0
930 931 -932 0
933 932 0
-934 0
-930 935 0
-933 935 0
936 -935 0
-930 -933 0
-931 937 0
-936 937 0
938 -937 0
-931 -936 0
939 -940 0
941 -942 0
941 -943 0
939 941 -944 0
945 944 0
-946 0
-939 947 0
-945 947 0
948 -947 0
-939 -945 0
-941 949 0
-948 949 0
950 -949 0
-941 -948 0
951 952 -953 0
954 953 0
-955 0
-951 956 0
-954 956 0
957 -956 0
-951 -954 0
-952 958 0
-957 958 0
959 -958 0
-952 -957 0
960 961 -962 0
963 962 0
-964 0
-960 965 0
-963 965 0
966 -965 0
-960 -963 0
-961 967 0
-966 967 0
968 -967 0
-961 -966 0
969 970 -971 0
972 971 0
-973 0
-969 974 0
-972 974 0
975 -974 0
-969 -972 0
-970 976 0
-975 976 0
977 -976 0
-970 -975 0
978 -979 0
980 -981 0
980 -982 0
978 980 -983 0
984 983 0
-985 0
-978 986 0
-984 986 0
987 -986 0
-978 -984 0
-980 988 0
-987 988 0
989 -988 0
-980 -987 0
990 991 -992 0
993 992 0
-994 0
-990 995 0
-993 995 0
996 -995 0
-990 -993 0
-991 997 0
-996 997 0
998 -997 0
-991 -996 0
999 1000 -1001 0
1002 1001 0
-1003 0
-999 1004 0
-1002 1004 0
1005 -1004 0
-999 -1002 0
-1000 1006 0
-1005 1006 0
1007 -1006 0
-1000 -1005 0
1008 1009 -1010 0
1011 1010 0
-1012 0
-1008 1013 0
-1011 1013 0
1014 -1013 0
-1008 -1011 0
-1009 1015 0
-1014 1015 0
1016 -1015 0
-1009 -1014 0
1017 -1018 0
1019 -1020 0
1019 -1021 0
1017 1019 -1022 0
1023 1022 0
-1024 0
-1017 1025 0
-1023 1025 0
1026 -1025 0
-1017 -1023 0
-1019 1027 0
-1026 1027 0
1028 -1027 0
-1019 -1026 0
1029 1030 -1031 0
1032 1031 0
-1033 0
-1029 1034 0
-1032 1034 0
1035 -1034 0
-1029 -1032 0
-1030 1036 0
-1035 1036 0
1037 -1036 0
-1030 -1035 0
1038 1039 -1040 0
1041 1040 0
-1042 0
-1038 1043 0
-1041 1043 0
1044 -1043 0
-1038 -1041 0
-1039 1045 0
-1044 1045 0
1046 -1045 0
-1039 -1044 0
1047 1048 -1049 0
1050 1049 0
-1051 0
-1047 1052 0
-1050 1052 0
1053 -1052 0
-1047 -1050 0
-1048 1054 0
-1053 1054 0
1055 -1054 0
-1048 -1053 0
1056 -1057 0
1058 -1059 0
1058 -1060 0
1056 1058 -1061 0
1062 1061 0
-1063 0
-1056 1064 0
-1062 1064 0
1065 -1064 0
-1056 -1062 0
-1058 1066 0
-1065 1066 0
1067 -1066 0
-1058 -1065 0
1068 1069 -1070 0
1071 1070 0
-1072 0
-1068 1073 0
-1071 1073 0
1074 -1073 0
-1068 -1071 0
-1069 1075 0
-1074 1075 0
1076 -1075 0
-1069 -1074 0
1077 1078 -1079 0
1080 1079 0
-1081 0
-1077 1082 0
-1080 1082 0
1083 -1082 0
-1077 -1080 0
-1078 1084 0
-1083 1084 0
1085 -1084 0
-1078 -1083 0
1086 1087 -1088 0
1089 1088 0
-1090 0
-1086 1091 0
-1089 1091 0
1092 -1091 0
-1086 -1089 0
-1087 1093 0
-1092 1093 0
1094 -1093 0
-1087 -1092 0
1095 1096 -1097 0
1098 1097 0
-1099 0
-1095 1100 0
-1098 1100 0
1101 -1100 0
-1095 -1098 0
-1096 1102 0
-1101 1102 0
1103 -1102 0
-1096 -1101 0
1104 1105 -1106 0
1107 1106 0
-1108 0
-1104 1109 0
-1107 1109 0
1110 -1109 0
-1104 -1107 0
-1105 1111 0
-1110 1111 0
1112 -1111 0
-1105 -1110 0
1113 0
-1114 0
1115 0
1116 0
-1117 0
1118 0
1119 0
-1120 0
1121 0
-1122 0
1123 0
1124 0
-1125 0
1126 0
1127 0
-1128 0
1129 0
-1130 0
1131 0
1132 0
-1133 0
1134 0
1135 0
-1136 0
1137 0
-1138 0
1139 0
1140 0
-1141 0
1142 0
1143 0
-1144 0
1145 0
-1146 0
1147 0
1148 0
-1149 0
1150 0
1151 0
-1152 0
1153 0
-1154 0
1155 0
1156 0
-1157 0
1158 0
1159 0
-1160 0
1161 1162 -1163 0
1164 1163 0
-1165 0
-1161 1166 0
-1164 1166 0
1167 -1166 0
-1161 -1164 0
-1162 1168 0
-1167 1168 0
1169 -1168 0
-1162 -1167 0
1170 -1171 0
1172 -1173 0
1170 1172 -1174 0
1175 1174 0
-1176 0
-1170 1177 0
-1175 1177 0
1178 -1177 0
-1170 -1175 0
-1172 1179 0
-1178 1179 0
1180 -1179 0
-1172 -1178 0
1181 1182 -1183 0
1184 1183 0
-1185 0
-1181 1186 0
-1184 1186 0
1187 -1186 0
-1181 -1184 0
-1182 1188 0
-1187 1188 0
1189 -1188 0
-1182 -1187 0
1190 1191 -1192 0
1193 1192 0
-1194 0
-1190 1195 0
-1193 1195 0
1196 -1195 0
-1190 -1193 0
-1191 1197 0
-1196 1197 0
1198 -1197 0
-1191 -1196 0
1199 -1200 0
1201 -1202 0
1199 1201 -1203 0
1204 1203 0
-1205 0
-1199 1206 0
-1204 1206 0
1207 -1206 0
-1199 -1204 0
-1201 1208 0
-1207 1208 0
1209 -1208 0
-1201 -1207 0
1210 1211 -1212 0
1213 1212 0
-1214 0
-1210 1215 0
-1213 1215 0
1216 -1215 0
-1210 -1213 0
-1211 1217 0
-1216 1217 0
1218 -1217 0
-1211 -1216 0
1219 1220 -1221 0
1222 1221 0
-1223 0
-1219 1224 0
-1222 1224 0
1225 -1224 0
-1219 -1222 0
-1220 1226 0
-1225 1226 0
1227 -1226 0
-1220 -1225 0
1228 -1229 0
1230 -1231 0
1228 1230 -1232 0
1233 1232 0
-1234 0
-1228 1235 0
-1233 1235 0
1236 -1235 0
-1228 -1233 0
-1230 1237 0
-1236 1237 0
1238 -1237 0
-1230 -1236 0
1239 1240 -1241 0
1242 1241 0
-1243 0
-1239 1244 0
-1242 1244 0
1245 -1244 0
-1239 -1242 0
-1240 1246 0
-1245 1246 0
1247 -1246 0
-1240 -1245 0
1248 1249 -1250 0
1251 1250 0
-1252 0
-1248 1253 0
-1251 1253 0
1254 -1253 0
-1248 -1251 0
-1249 1255 0
-1254 1255 0
1256 -1255 0
-1249 -1254 0
1257 -1258 0
1259 -1260 0
1257 1259 -1261 0
1262 1261 0
-1263 0
-1257 1264 0
-1262 1264 0
1265 -1264 0
-1257 -1262 0
-1259 1266 0
-1265 1266 0
1267 -1266 0
-1259 -1265 0
1268 1269 -1270 0
1271 1270 0
-1272 0
-1268 1273 0
-1271 1273 0
1274 -1273 0
-1268 -1271 0
-1269 1275 0
-1274 1275 0
1276 -1275 0
-1269 -1274 0
1277 1278 -1279 0
1280 1279 0
-1281 0
-1277 1282 0
-1280 1282 0
1283 -1282 0
-1277 -1280 0
-1278 1284 0
-1283 1284 0
1285 -1284 0
-1278 -1283 0
1286 -1287 0
1288 -1289 0
1286 1288 -1290 0
1291 1290 0
-1292 0
-1286 1293 0
-1291 1293 0
1294 -1293 0
-1286 -1291 0
-1288 1295 0
-1294 1295 0
1296 -1295 0
-1288 -1294 0
1297 1298 -1299 0
1300 1299 0
-1301 0
-1297 1302 0
-1300 1302 0
1303 -1302 0
-1297 -1300 0
-1298 1304 0
-1303 1304 0
1305 -1304 0
-1298 -1303 0
1306 1307 -1308 0
1309 1308 0
-1310 0
-1306 1311 0
-1309 1311 0
1312 -1311 0
-1306 -1309 0
-1307 1313 0
-1312 1313 0
1314 -1313 0
-1307 -1312 0
1315 -1316 0
1317 -1318 0
1315 1317 -1319 0
1320 1319 0
-1321 0
-1315 1322 0
-1320 1322 0
1323 -1322 0
-1315 -1320 0
-1317 1324 0
-1323 1324 0
1325 -1324 0
-1317 -1323 0
1326 1327 -1328 0
1329 1328 0
-1330 0
-1326 1331 0
-1329 1331 0
1332 -1331 0
-1326 -1329 0
-1327 1333 0
-1332 1333 0
1334 -1333 0
-1327 -1332 0
1335 1336 -1337 0
1338 1337 0
-1339 0
-1335 1340 0
-1338 1340 0
1341 -1340 0
-1335 -1338 0
-1336 1342 0
-1341 1342 0
1343 -1342 0
-1336 -1341 0
1344 -1345 0
1346 -1347 0
1344 1346 -1348 0
1349 1348 0
-1350 0
-1344 1351 0
-1349 1351 0
1352 -1351 0
-1344 -1349 0
-1346 1353 0
-1352 1353 0
1354 -1353 0
-1346 -1352 0
1355 1356 -1357 0
1358 1357 0
-1359 0
-1355 1360 0
-1358 1360 0
1361 -1360 0
-1355 -1358 0
-1356 1362 0
-1361 1362 0
1363 -1362 0
-1356 -1361 0
1364 1365 -1366 0
1367 1366 0
-1368 0
-1364 1369 0
-1367 1369 0
1370 -1369 0
-1364 -1367 0
-1365 1371 0
-1370 1371 0
1372 -1371 0
-1365 -1370 0
1373 -1374 0
1375 -1376 0
1373 1375 -1377 0
1378 1377 0
-1379 0
-1373 1380 0
-1378 1380 0
1381 -1380 0
-1373 -1378 0
-1375 1382 0
-1381 1382 0
1383 -1382 0
-1375 -1381 0
1384 1385 -1386 0
1387 1386 0
-1388 0
-1384 1389 0
-1387 1389 0
1390 -1389 0
-1384 -1387 0
-1385 1391 0
-1390 1391 0
1392 -1391 0
-1385 -1390 0
1393 1394 -1395 0
1396 1395 0
-1397 0
-1393 1398 0
-1396 1398 0
1399 -1398 0
-1393 -1396 0
-1394 1400 0
-1399 1400 0
1401 -1400 0
-1394 -1399 0
1402 -1403 0
1404 -1405 0
1402 1404 -1406 0
1407 1406 0
-1408 0
-1402 1409 0
-1407 1409 0
1410 -1409 0
-1402 -1407 0
-1404 1411 0
-1410 1411 0
1412 -1411 0
-1404 -1410 0
1413 1414 -1415 0
1416 1415 0
-1417 0
-1413 1418 0
-1416 1418 0
1419 -1418 0
-1413 -1416 0
-1414 1420 0
-1419 1420 0
1421 -1420 0
-1414 -1419 0
1422 1423 -1424 0
1425 1424 0
-1426 0
-1422 1427 0
-1425 1427 0
1428 -1427 0
-1422 -1425 0
-1423 1429 0
-1428 1429 0
1430 -1429 0
-1423 -1428 0
1431 -1432 0
1433 -1434 0
1431 1433 -1435 0
1436 1435 0
-1437 0
-1431 1438 0
-1436 1438 0
1439 -1438 0
-1431 -1436 0
-1433 1440 0
-1439 1440 0
1441 -1440 0
-1433 -1439 0
1442 1443 -1444 0
1445 1444 0
-1446 0
-1442 1447 0
-1445 1447 0
1448 -1447 0
-1442 -1445 0
-1443 1449 0
-1448 1449 0
1450 -1449 0
-1443 -1448 0
1451 0
-1452 0
1453 0
1454 0
-1455 0
1456 0
1457 0
-1458 0
1459 0
-1460 0
1461 0
1462 0
-1463 0
1464 0
1465 0
-1466 0
1467 0
-1468 0
1469 0
1470 0
-1471 0
1472 0
1473 0
-1474 0
1475 0
-1476 0
1477 0
1478 0
-1479 0
1480 0
1481 0
-1482 0
1483 0
-1484 0
1485 0
1486 0
-1487 0
1488 0
1489 0
-1490 0
1491 0
-1492 0
1493 0
1494 0
-1495 0
1496 0
1497 0
-1498 0
1499 0
-1500 0
1501 0
1502 0
-1503 0
1504 0
1505 0
-1506 0
-1507 0
-1508 0
-1509 0
1510 0
-1511 0
1512 0
1513 0
-1514 0
1515 0
1516 0
-1517 0
-1518 0
-1519 0
-1520 0
1521 0
-1522 0
1523 0
1524 0
-1525 0
1526 0
1527 0
-1528 0
1529 -1530 0
1531 -1532 0
1531 -1533 0
1529 1531 -1534 0
1535 1534 0
-1536 0
-1529 1537 0
-1535 1537 0
1538 -1537 0
-1529 -1535 0
-1531 1539 0
-1538 1539 0
1540 -1539 0
-1531 -1538 0
1541 -1542 0
1543 -1544 0
1543 -1545 0
1541 1543 -1546 0
1547 1546 0
-1548 0
-1541 1549 0
-1547 1549 0
1550 -1549 0
-1541 -1547 0
-1543 1551 0
-1550 1551 0
1552 -1551 0
-1543 -1550 0
1553 -1554 0
1555 -1556 0
1555 -1557 0
1553 1555 -1558 0
1559 1558 0
-1560 0
-1553 1561 0
-1559 1561 0
1562 -1561 0
-1553 -1559 0
-1555 1563 0
-1562 1563 0
1564 -1563 0
-1555 -1562 0
1565 -1566 0
1567 -1568 0
1567 -1569 0
1565 1567 -1570 0
1571 1570 0
-1572 0
-1565 1573 0
-1571 1573 0
1574 -1573 0
-1565 -1571 0
-1567 1575 0
-1574 1575 0
1576 -1575 0
-1567 -1574 0
1577 -1578 0
1579 -1580 0
1579 -1581 0
1577 1579 -1582 0
1583 1582 0
-1584 0
-1577 1585 0
-1583 1585 0
1586 -1585 0
-1577 -1583 0
-1579 1587 0
-1586 1587 0
1588 -1587 0
-1579 -1586 0
1589 -1590 0
1591 -1592 0
1591 -1593 0
1589 1591 -1594 0
1595 1594 0
-1596 0
-1589 1597 0
-1595 1597 0
1598 -1597 0
-1589 -1595 0
-1591 1599 0
-1598 1599 0
1600 -1599 0
-1591 -1598 0
1601 -1602 0
1603 -1604 0
1603 -1605 0
1601 1603 -1606 0
1607 1606 0
-1608 0
-1601 1609 0
-1607 1609 0
1610 -1609 0
-1601 -1607 0
-1603 1611 0
-1610 1611 0
1612 -1611 0
-1603 -1610 0
1613 -1614 0
1615 -1616 0
1615 -1617 0
1613 1615 -1618 0
1619 1618 0
-1620 0
-1613 1621 0
-1619 1621 0
1622 -1621 0
-1613 -1619 0
-1615 1623 0
-1622 1623 0
1624 -1623 0
-1615 -1622 0
1625 -1626 0
1627 -1628 0
1627 -1629 0
1625 1627 -1630 0
1631 1630 0
-1632 0
-1625 1633 0
-1631 1633 0
1634 -1633 0
-1625 -1631 0
-1627 1635 0
-1634 1635 0
1636 -1635 0
-1627 -1634 0
1637 -1638 0
1639 -1640 0
1639 -1641 0
1637 1639 -1642 0
1643 1642 0
-1644 0
-1637 1645 0
-1643 1645 0
1646 -1645 0
-1637 -1643 0
-1639 1647 0
-1646 1647 0
1648 -1647 0
-1639 -1646 0
1649 -1650 0
1651 -1652 0
1651 -1653 0
1649 1651 -1654 0
1655 1654 0
-1656 0
-1649 1657 0
-1655 1657 0
1658 -1657 0
-1649 -1655 0
-1651 1659 0
-1658 1659 0
1660 -1659 0
-1651 -1658 0
1661 -1662 0
1663 -1664 0
1663 -1665 0
1661 1663 -1666 0
1667 1666 0
-1668 0
-1661 1669 0
-1667 1669 0
1670 -1669 0
-1661 -1667 0
-1663 1671 0
-1670 1671 0
1672 -1671 0
-1663 -1670 0
1673 -1674 0
1675 -1676 0
1675 -1677 0
1673 1675 -1678 0
1679 1678 0
-1680 0
-1673 1681 0
-1679 1681 0
1682 -1681 0
-1673 -1679 0
-1675 1683 0
-1682 1683 0
1684 -1683 0
-1675 -1682 0
1685 -1686 0
1687 -1688 0
1687 -1689 0
1685 1687 -1690 0
1691 1690 0
-1692 0
-1685 1693 0
-1691 1693 0
1694 -1693 0
-1685 -1691 0
-1687 1695 0
-1694 1695 0
1696 -1695 0
-1687 -1694 0
1697 -1698 0
1699 -1700 0
1699 -1701 0
1697 1699 -1702 0
1703 1702 0
-1704 0
-1697 1705 0
-1703 1705 0
1706 -1705 0
-1697 -1703 0
-1699 1707 0
-1706 1707 0
1708 -1707 0
-1699 -1706 0
1709 0
-1710 0
1711 0
1712 0
-1713 0
1714 0
1715 0
-1716 0
-1717 0
-1718 0
-1719 0
1720 0
-1721 0
1722 0
1723 0
-1724 0
1725 0
1726 0
-1727 0
-1728 0
-1729 0
-1730 0
1731 0
-1732 0
1733 0
1734 0
-1735 0
1736 0
1737 0
-1738 0
1739 0
-1740 0
1741 0
1742 0
-1743 0
1744 0
1745 0
-1746 0
-1747 0
-1748 0
-1749 0
1750 0
-1751 0
1752 0
1753 0
-1754 0
1755 0
1756 0
-1757 0
-1758 0
-1759 0
-1760 0
1761 0
-1762 0
1763 0
1764 0
-1765 0
1766 0
1767 0
-1768 0
1769 -1770 0
1771 -1772 0
1771 -1773 0
1769 1771 -1774 0
1775 1774 0
-1776 0
-1769 1777 0
-1775 1777 0
1778 -1777 0
-1769 -1775 0
-1771 1779 0
-1778 1779 0
1780 -1779 0
-1771 -1778 0
-1781 0
-1782 0
-1783 0
1784 0
-1785 0
1786 0
1787 0
-1788 0
1789 0
1790 0
-1791 0
1792 -1793 0
1794 -1795 0
1794 -1796 0
1792 1794 -1797 0
1798 1797 0
-1799 0
-1792 1800 0
-1798 1800 0
1801 -1800 0
-1792 -1798 0
-1794 1802 0
-1801 1802 0
1803 -1802 0
-1794 -1801 0
1804 -1805 0
1806 -1807 0
1806 -1808 0
1804 1806 -1809 0
1810 1809 0
-1811 0
-1804 1812 0
-1810 1812 0
1813 -1812 0
-1804 -1810 0
-1806 1814 0
-1813 1814 0
1815 -1814 0
-1806 -1813 0
-1816 0
-1817 0
-1818 0
1819 0
-1820 0
1821 0
1822 0
-1823 0
1824 0
1825 0
-1826 0
1827 -1828 0
1829 -1830 0
1829 -1831 0
1827 1829 -1832 0
1833 1832 0
-1834 0
-1827 1835 0
-1833 1835 0
1836 -1835 0
-1827 -1833 0
-1829 1837 0
-1836 1837 0
1838 -1837 0
-1829 -1836 0
1839 -1840 0
1841 -1842 0
1841 -1843 0
1839 1841 -1844 0
1845 1844 0
-1846 0
-1839 1847 0
-1845 1847 0
1848 -1847 0
-1839 -1845 0
-1841 1849 0
-1848 1849 0
1850 -1849 0
-1841 -1848 0
-1851 0
-1852 0
-1853 0
1854 0
-1855 0
1856 0
1857 0
-1858 0
1859 0
1860 0
-1861 0
1862 -1863 0
1864 -1865 0
1864 -1866 0
1862 1864 -1867 0
1868 1867 0
-1869 0
-1862 1870 0
-1868 1870 0
1871 -1870 0
-1862 -1868 0
-1864 1872 0
-1871 1872 0
1873 -1872 0
-1864 -1871 0
1874 -1875 0
1876 -1877 0
1876 -1878 0
1874 1876 -1879 0
1880 1879 0
-1881 0
-1874 1882 0
-1880 1882 0
1883 -1882 0
-1874 -1880 0
-1876 1884 0
-1883 1884 0
1885 -1884 0
-1876 -1883 0
-1886 0
-1887 0
-1888 0
1889 0
-1890 0
1891 0
1892 0
-1893 0
1894 0
1895 0
-1896 0
1897 -1898 0
1899 -1900 0
1899 -1901 0
1897 1899 -1902 0
1903 1902 0
-1904 0
-1897 1905 0
-1903 1905 0
1906 -1905 0
-1897 -1903 0
-1899 1907 0
-1906 1907 0
1908 -1907 0
-1899 -1906 0
1909 -1910 0
1911 -1912 0
1911 -1913 0
1909 1911 -1914 0
1915 1914 0
-1916 0
-1909 1917 0
-1915 1917 0
1918 -1917 0
-1909 -1915 0
-1911 1919 0
-1918 1919 0
1920 -1919 0
-1911 -1918 0
-1921 0
-1922 0
-1923 0
1924 0
-1925 0
1926 0
1927 0
-1928 0
1929 0
1930 0
-1931 0
1932 -1933 0
1934 -1935 0
1934 -1936 0
1932 1934 -1937 0
1938 1937 0
-1939 0
-1932 1940 0
-1938 1940 0
1941 -1940 0
-1932 -1938 0
-1934 1942 0
-1941 1942 0
1943 -1942 0
-1934 -1941 0
1944 0
-1945 0
1946 0
1947 0
-1948 0
1949 0
1950 0
-1951 0
-1952 0
-1953 0
-1954 0
1955 0
-1956 0
1957 0
1958 0
-1959 0
1960 0
1961 0
-1962 0
-1963 0
-1964 0
-1965 0
1966 0
-1967 0
1968 0
1969 0
-1970 0
1971 0
1972 0
-1973 0
-1974 0
-1975 0
-1976 0
-1977 0
1978 0
-1979 0
1980 0
1981 0
-1982 0
1983 0
1984 0
-1985 0
-1986 0
-1987 0
-1988 0
-1989 0
1990 0
-1991 0
1992 0
1993 0
-1994 0
1995 0
1996 0
-1997 0
-1998 0
-1999 0
-2000 0
-2001 0
2002 0
-2003 0
2004 0
2005 0
-2006 0
2007 0
2008 0
-2009 0
-2010 0
-2011 0
-2012 0
-2013 0
2014 0
-2015 0
2016 0
2017 0
-2018 0
2019 0
2020 0
-2021 0
2022 -2023 0
2024 -2025 0
2024 -2026 0
2022 2024 -2027 0
2028 2027 0
-2029 0
-2022 2030 0
-2028 2030 0
2031 -2030 0
-2022 -2028 0
-2031 2032 0
2033 -2032 0
2034 -2035 0
2034 -2036 0
2037 2038 0
-2039 0
-2037 2040 0
2041 -2040 0
-2034 2042 0
-2041 2042 0
2043 -2042 0
-2034 -2041 0
-2044 0
-2045 0
-2046 0
-2047 0
2048 0
-2049 0
2050 0
2051 0
-2052 0
2053 0
2054 0
-2055 0
2056 -2057 0
2058 -2059 0
2058 -2060 0
2056 2058 -2061 0
2062 2061 0
-2063 0
-2056 2064 0
-2062 2064 0
2065 -2064 0
-2056 -2062 0
-2065 2066 0
2067 -2066 0
2068 -2069 0
2070 -2071 0
2070 -2072 0
2073 2074 0
-2075 0
-2073 2076 0
2077 -2076 0
-2070 2078 0
-2077 2078 0
2079 -2078 0
-2070 -2077 0
-2080 0
-2081 0
-2082 0
-2083 0
2084 0
-2085 0
2086 0
2087 0
-2088 0
2089 0
2090 0
-2091 0
2092 -2093 0
2094 -2095 0
2094 -2096 0
2092 2094 -2097 0
2098 2097 0
-2099 0
-2092 2100 0
-2098 2100 0
2101 -2100 0
-2092 -2098 0
-2101 2102 0
2103 -2102 0
-2104 0
-2105 0
-2106 0
-2107 0
2108 0
-2109 0
2110 0
2111 0
-2112 0
2113 0
2114 0
-2115 0
-2116 0
-2117 0
-2118 0
-2119 0
2120 0
-2121 0
2122 0
2123 0
-2124 0
2125 0
2126 0
-2127 0
2128 -2129 0
2130 -2131 0
2130 -2132 0
2128 2130 -2133 0
2134 2133 0
-2135 0
-2128 2136 0
-2134 2136 0
2137 -2136 0
-2128 -2134 0
-2137 2138 0
2139 -2138 0
2140 -2141 0
2140 -2142 0
2143 2144 0
-2145 0
-2143 2146 0
2147 -2146 0
-2140 2148 0
-2147 2148 0
2149 -2148 0
-2140 -2147 0
-2150 0
-2151 0
-2152 0
-2153 0
2154 0
-2155 0
2156 0
2157 0
-2158 0
2159 0
2160 0
-2161 0
2162 -2163 0
2164 -2165 0
2164 -2166 0
2162 2164 -2167 0
2168 2167 0
-2169 0
-2162 2170 0
-2168 2170 0
2171 -2170 0
-2162 -2168 0
-2171 2172 0
2173 -2172 0
2174 -2175 0
2176 -2177 0
2176 -2178 0
2179 2180 0
-2181 0
-2179 2182 0
2183 -2182 0
-2176 2184 0
-2183 2184 0
2185 -2184 0
-2176 -2183 0
-2186 0
-2187 0
-2188 0
-2189 0
2190 0
-2191 0
2192 0
2193 0
-2194 0
2195 0
2196 0
-2197 0
-2198 0
-2199 0
-2200 0
-2201 0
2202 0
-2203 0
2204 0
2205 0
-2206 0
2207 0
2208 0
-2209 0
-2210 0
-2211 0
-2212 0
-2213 0
2214 0
-2215 0
2216 0
2217 0
-2218 0
2219 0
2220 0
-2221 0
-2222 0
-2223 0
2224 0
-2225 0
2226 0
2227 0
-2228 0
2229 0
2230 0
-2231 0
2232 -2233 0
2234 -2235 0
2232 2234 -2236 0
2237 2236 0
-2238 0
-2232 2239 0
-2237 2239 0
2240 -2239 0
-2232 -2237 0
-2234 2241 0
-2240 2241 0
2242 -2241 0
-2234 -2240 0
2243 -2244 0
2245 -2246 0
2243 2245 -2247 0
2248 2247 0
-2249 0
-2243 2250 0
-2248 2250 0
2251 -2250 0
-2243 -2248 0
-2245 2252 0
-2251 2252 0
2253 -2252 0
-2245 -2251 0
2254 -2255 0
2256 -2257 0
2254 2256 -2258 0
2259 2258 0
-2260 0
-2254 2261 0
-2259 2261 0
2262 -2261 0
-2254 -2259 0
-2256 2263 0
-2262 2263 0
2264 -2263 0
-2256 -2262 0
2265 -2266 0
2267 -2268 0
2265 2267 -2269 0
2270 2269 0
-2271 0
-2265 2272 0
-2270 2272 0
2273 -2272 0
-2265 -2270 0
-2267 2274 0
-2273 2274 0
2275 -2274 0
-2267 -2273 0
2276 -2277 0
2278 -2279 0
2276 2278 -2280 0
2281 2280 0
-2282 0
-2276 2283 0
-2281 2283 0
2284 -2283 0
-2276 -2281 0
-2278 2285 0
-2284 2285 0
2286 -2285 0
-2278 -2284 0
-2287 0
-2288 0
2289 0
-2290 0
2291 0
2292 0
-2293 0
2294 0
2295 0
-2296 0
-2297 0
-2298 0
2299 0
-2300 0
2301 0
2302 0
-2303 0
2304 0
2305 0
-2306 0
2307 -2308 0
2309 -2310 0
2307 2309 -2311 0
2312 2311 0
-2313 0
-2307 2314 0
-2312 2314 0
2315 -2314 0
-2307 -2312 0
-2309 2316 0
-2315 2316 0
2317 -2316 0
-2309 -2315 0
2318 -2319 0
2320 -2321 0
2318 2320 -2322 0
2323 2322 0
-2324 0
-2318 2325 0
-2323 2325 0
2326 -2325 0
-2318 -2323 0
-2320 2327 0
-2326 2327 0
2328 -2327 0
-2320 -2326 0
2329 -2330 0
2331 -2332 0
2329 2331 -2333 0
2334 2333 0
-2335 0
-2329 2336 0
-2334 2336 0
2337 -2336 0
-2329 -2334 0
-2331 2338 0
-2337 2338 0
2339 -2338 0
-2331 -2337 0
2340 -2341 0
2342 -2343 0
2340 2342 -2344 0
2345 2344 0
-2346 0
-2340 2347 0
-2345 2347 0
2348 -2347 0
-2340 -2345 0
-2342 2349 0
-2348 2349 0
2350 -2349 0
-2342 -2348 0
2351 -2352 0
2353 -2354 0
2351 2353 -2355 0
2356 2355 0
-2357 0
-2351 2358 0
-2356 2358 0
2359 -2358 0
-2351 -2356 0
-2353 2360 0
-2359 2360 0
2361 -2360 0
-2353 -2359 0
-2362 0
-2363 0
2364 0
-2365 0
2366 0
2367 0
-2368 0
2369 0
2370 0
-2371 0
-2372 0
-2373 0
2374 0
-2375 0
2376 0
2377 0
-2378 0
2379 0
2380 0
-2381 0
2382 -2383 0
2384 -2385 0
2382 2384 -2386 0
2387 2386 0
-2388 0
-2382 2389 0
-2387 2389 0
2390 -2389 0
-2382 -2387 0
-2384 2391 0
-2390 2391 0
2392 -2391 0
-2384 -2390 0
2393 -2394 0
2395 -2396 0
2393 2395 -2397 0
2398 2397 0
-2399 0
-2393 2400 0
-2398 2400 0
2401 -2400 0
-2393 -2398 0
-2395 2402 0
-2401 2402 0
2403 -2402 0
-2395 -2401 0
2404 -2405 0
2406 -2407 0
2404 2406 -2408 0
2409 2408 0
-2410 0
-2404 2411 0
-2409 2411 0
2412 -2411 0
-2404 -2409 0
-2406 2413 0
-2412 2413 0
2414 -2413 0
-2406 -2412 0
2415 -2416 0
2417 -2418 0
2415 2417 -2419 0
2420 2419 0
-2421 0
-2415 2422 0
-2420 2422 0
2423 -2422 0
-2415 -2420 0
-2417 2424 0
-2423 2424 0
2425 -2424 0
-2417 -2423 0
2426 -2427 0
2428 -2429 0
2426 2428 -2430 0
2431 2430 0
-2432 0
-2426 2433 0
-2431 2433 0
2434 -2433 0
-2426 -2431 0
-2428 2435 0
-2434 2435 0
2436 -2435 0
-2428 -2434 0
-2437 0
-2438 0
2439 0
-2440 0
2441 0
2442 0
-2443 0
2444 0
2445 0
-2446 0
-2447 0
-2448 0
-2449 0
-2450 0
-2451 0
-2452 0
-2453 0
-2454 0
-2455 0
-2456 0
1975 2457 0
1975 2458 0
2459 2460 0
2461 0
2462 0
-2463 -2457 -2458 -2460 0
1976 2464 0
1976 2465 0
2466 2467 0
2468 0
2469 0
-2470 -2464 -2465 -2467 0
1977 2471 0
1977 2472 0
2473 2474 0
2475 0
2476 0
-2477 -2471 -2472 -2474 0
-2478 0
-2479 0
-2480 0
-2481 0
-2459 2482 0
2483 -2466 0
2484 -2473 0
-2485 0
-2486 0
-2487 0
-2488 0
1987 2489 0
1987 2490 0
1747 2491 0
1987 2492 0
1747 2493 0
-2482 2494 -2489 -2490 -2491 -2492 -2493 0
1988 2495 0
1988 2496 0
1748 2497 0
1988 2498 0
1748 2499 0
-2483 2500 -2495 -2496 -2497 -2498 -2499 0
1989 2501 0
1989 2502 0
1749 2503 0
1989 2504 0
1749 2505 0
-2484 2506 -2501 -2502 -2503 -2504 -2505 0
-2507 0
-2508 0
-2509 0
-2510 0
-2494 2511 0
2512 -2500 0
2513 -2506 0
-2514 0
-2515 0
-2516 0
-2517 0
1999 2518 0
2519 0
2520 0
1999 2521 0
1758 2522 0
-2511 -2518 -2521 -2522 0
2000 2523 0
2524 0
2525 0
2000 2526 0
1759 2527 0
-2512 -2523 -2526 -2527 0
2001 2528 0
2529 0
2530 0
2001 2531 0
1760 2532 0
-2513 -2528 -2531 -2532 0
-2533 0
-2534 0
-2535 0
-2536 0
-2537 0
-2538 0
2539 -49 0
49 -2539 0
-50 2540 0
-2539 2540 0
50 2539 -2540 0
2541 -2540 0
2540 -2541 0
-2542 0
-2543 0
-2544 0
-49 2545 0
-58 2545 0
-1769 2545 0
49 58 1769 -2545 0
2546 -2545 0
-2546 2545 0
-59 2547 0
-2546 2547 0
50 59 1771 2546 -2547 0
2548 -2547 0
2547 -2548 0
-50 -2546 0
-59 -2546 0
-1771 -2546 0
2011 2549 0
2011 2550 0
2551 2552 0
1770 2552 0
2553 0
2554 0
-2551 -2549 -2550 -2552 0
-1770 -2549 -2550 -2552 0
2012 2555 0
2012 2556 0
2557 2558 0
1772 2558 0
2559 0
2560 0
-2557 -2555 -2556 -2558 0
-1772 -2555 -2556 -2558 0
2013 2561 0
2013 2562 0
2563 2564 0
1773 2564 0
2565 0
2566 0
-2563 -2561 -2562 -2564 0
-1773 -2561 -2562 -2564 0
-58 2567 0
-67 2567 0
58 67 -2567 0
2568 -2567 0
-2568 2567 0
-68 2569 0
-2568 2569 0
59 68 2568 -2569 0
2570 -2569 0
2569 -2570 0
-59 -2568 0
-68 -2568 0
2551 -2571 0
-2551 2571 0
2572 -2557 0
2557 -2572 0
2573 -2563 0
2563 -2573 0
-67 2574 0
-76 2574 0
-2022 2574 0
67 76 2022 -2574 0
2575 -2574 0
-2575 2574 0
-68 2576 0
-77 2576 0
-2575 2576 0
68 77 2024 2575 -2576 0
2577 -2576 0
2576 -2577 0
-68 -2575 0
-77 -2575 0
1781 2578 0
-2571 2579 0
2580 2579 0
2023 2579 0
1781 2581 0
2571 2582 0
-2580 2582 0
2023 2582 0
1781 2583 0
2571 -2580 -2578 -2579 -2581 -2582 -2583 0
-2571 2580 -2578 -2579 -2581 -2582 -2583 0
-2023 -2578 -2579 -2581 -2582 -2583 0
2025 2584 0
2025 2585 0
1782 2586 0
2025 2587 0
1782 2588 0
2572 -2589 -2584 -2585 -2586 -2587 -2588 0
-2572 2589 -2584 -2585 -2586 -2587 -2588 0
2026 2590 0
2026 2591 0
1783 2592 0
2026 2593 0
1783 2594 0
2573 -2595 -2590 -2591 -2592 -2593 -2594 0
-2573 2595 -2590 -2591 -2592 -2593 -2594 0
-76 2596 0
-85 2596 0
76 85 -2596 0
2597 -2596 0
-2597 2596 0
-77 2598 0
-2597 2598 0
77 87 2597 -2598 0
2599 -2598 0
2598 -2599 0
-77 -2597 0
-87 -2597 0
2580 -86 0
-2580 86 0
88 -2589 0
2589 -88 0
89 -2595 0
2595 -89 0
-85 2600 0
-97 2600 0
-1792 2600 0
85 97 1792 2601 -2600 0
2602 -2600 0
-2602 2600 0
-87 2603 0
-2602 2603 0
87 98 1794 2034 2602 -2603 0
2604 -2603 0
2603 -2604 0
-87 -2602 0
-98 -2602 0
-1794 -2602 0
2605 2606 0
2607 0
2608 0
2605 2609 0
86 2610 0
1793 2610 0
-86 -2606 -2609 -2610 0
-1793 -2606 -2609 -2610 0
-88 2611 0
1795 2611 0
2035 2611 0
2612 0
2613 0
88 2614 0
-1795 2614 0
2035 2614 0
88 2615 0
1795 2615 0
-2035 2615 0
-88 -2611 -2614 -2615 0
-1795 -2611 -2614 -2615 0
-2035 -2611 -2614 -2615 0
-89 2616 0
1796 2616 0
2036 2616 0
2617 0
2618 0
89 2619 0
-1796 2619 0
2036 2619 0
89 2620 0
1796 2620 0
-2036 2620 0
-89 -2616 -2619 -2620 0
-1796 -2616 -2619 -2620 0
-2036 -2616 -2619 -2620 0
2621 -97 0
97 -2621 0
-98 2622 0
-2621 2622 0
98 2621 -2622 0
2623 -2622 0
2622 -2623 0
-2624 0
-2625 0
-2626 0
2627 -106 0
106 -2627 0
-107 2628 0
-2627 2628 0
107 2627 -2628 0
2629 -2628 0
2628 -2629 0
-2630 0
-2631 0
-2632 0
-106 2633 0
-115 2633 0
-1804 2633 0
106 115 1804 -2633 0
2634 -2633 0
-2634 2633 0
-116 2635 0
-2634 2635 0
107 116 1806 2634 -2635 0
2636 -2635 0
2635 -2636 0
-107 -2634 0
-116 -2634 0
-1806 -2634 0
2045 2637 0
2045 2638 0
2639 2640 0
1805 2640 0
2641 0
2642 0
-2639 -2637 -2638 -2640 0
-1805 -2637 -2638 -2640 0
2046 2643 0
2046 2644 0
2645 2646 0
1807 2646 0
2647 0
2648 0
-2645 -2643 -2644 -2646 0
-1807 -2643 -2644 -2646 0
2047 2649 0
2047 2650 0
2651 2652 0
1808 2652 0
2653 0
2654 0
-2651 -2649 -2650 -2652 0
-1808 -2649 -2650 -2652 0
-115 2655 0
-124 2655 0
115 124 -2655 0
2656 -2655 0
-2656 2655 0
-125 2657 0
-2656 2657 0
116 125 2656 -2657 0
2658 -2657 0
2657 -2658 0
-116 -2656 0
-125 -2656 0
2639 -2659 0
-2639 2659 0
2660 -2645 0
2645 -2660 0
2661 -2651 0
2651 -2661 0
-124 2662 0
-133 2662 0
-2056 2662 0
124 133 2056 -2662 0
2663 -2662 0
-2663 2662 0
-125 2664 0
-134 2664 0
-2663 2664 0
125 134 2058 2663 -2664 0
2665 -2664 0
2664 -2665 0
-125 -2663 0
-134 -2663 0
1816 2666 0
-2659 2667 0
2668 2667 0
2057 2667 0
1816 2669 0
2659 2670 0
-2668 2670 0
2057 2670 0
1816 2671 0
2659 -2668 -2666 -2667 -2669 -2670 -2671 0
-2659 2668 -2666 -2667 -2669 -2670 -2671 0
-2057 -2666 -2667 -2669 -2670 -2671 0
2059 2672 0
2059 2673 0
1817 2674 0
2059 2675 0
1817 2676 0
2660 -2677 -2672 -2673 -2674 -2675 -2676 0
-2660 2677 -2672 -2673 -2674 -2675 -2676 0
2060 2678 0
2060 2679 0
1818 2680 0
2060 2681 0
1818 2682 0
2661 -2683 -2678 -2679 -2680 -2681 -2682 0
-2661 2683 -2678 -2679 -2680 -2681 -2682 0
-133 2684 0
-142 2684 0
133 142 -2684 0
2685 -2684 0
-2685 2684 0
-134 2686 0
-2685 2686 0
134 144 2685 -2686 0
2687 -2686 0
2686 -2687 0
-134 -2685 0
-144 -2685 0
2668 -143 0
-2668 143 0
145 -2677 0
2677 -145 0
146 -2683 0
2683 -146 0
-142 2688 0
-154 2688 0
-1827 2688 0
142 154 1827 2068 -2688 0
2689 -2688 0
-2689 2688 0
-144 2690 0
-2689 2690 0
144 155 1829 2070 2689 -2690 0
2691 -2690 0
2690 -2691 0
-144 -2689 0
-155 -2689 0
-1829 -2689 0
2069 2692 0
2693 0
2694 0
2069 2695 0
143 2696 0
1828 2696 0
-143 -2692 -2695 -2696 0
-1828 -2692 -2695 -2696 0
-145 2697 0
1830 2697 0
2071 2697 0
2698 0
2699 0
145 2700 0
-1830 2700 0
2071 2700 0
145 2701 0
1830 2701 0
-2071 2701 0
-145 -2697 -2700 -2701 0
-1830 -2697 -2700 -2701 0
-2071 -2697 -2700 -2701 0
-146 2702 0
1831 2702 0
2072 2702 0
2703 0
2704 0
146 2705 0
-1831 2705 0
2072 2705 0
146 2706 0
1831 2706 0
-2072 2706 0
-146 -2702 -2705 -2706 0
-1831 -2702 -2705 -2706 0
-2072 -2702 -2705 -2706 0
2707 -154 0
154 -2707 0
-155 2708 0
-2707 2708 0
155 2707 -2708 0
2709 -2708 0
2708 -2709 0
-2710 0
-2711 0
-2712 0
2713 -163 0
163 -2713 0
-164 2714 0
-2713 2714 0
164 2713 -2714 0
2715 -2714 0
2714 -2715 0
-2716 0
-2717 0
-2718 0
-163 2719 0
-172 2719 0
-1839 2719 0
163 172 1839 -2719 0
2720 -2719 0
-2720 2719 0
-173 2721 0
-2720 2721 0
164 173 1841 2720 -2721 0
2722 -2721 0
2721 -2722 0
-164 -2720 0
-173 -2720 0
-1841 -2720 0
2081 2723 0
2081 2724 0
2725 2726 0
1840 2726 0
2727 0
2728 0
-2725 -2723 -2724 -2726 0
-1840 -2723 -2724 -2726 0
2082 2729 0
2082 2730 0
2731 2732 0
1842 2732 0
2733 0
2734 0
-2731 -2729 -2730 -2732 0
-1842 -2729 -2730 -2732 0
2083 2735 0
2083 2736 0
2737 2738 0
1843 2738 0
2739 0
2740 0
-2737 -2735 -2736 -2738 0
-1843 -2735 -2736 -2738 0
-172 2741 0
-181 2741 0
172 181 -2741 0
2742 -2741 0
-2742 2741 0
-182 2743 0
-2742 2743 0
173 182 2742 -2743 0
2744 -2743 0
2743 -2744 0
-173 -2742 0
-182 -2742 0
2725 -2745 0
-2725 2745 0
2746 -2731 0
2731 -2746 0
2747 -2737 0
2737 -2747 0
-181 2748 0
-190 2748 0
-2092 2748 0
181 190 2092 -2748 0
2749 -2748 0
-2749 2748 0
-182 2750 0
-191 2750 0
-2749 2750 0
182 191 2094 2749 -2750 0
2751 -2750 0
2750 -2751 0
-182 -2749 0
-191 -2749 0
1851 2752 0
-2745 2753 0
2754 2753 0
2093 2753 0
1851 2755 0
2745 2756 0
-2754 2756 0
2093 2756 0
1851 2757 0
2745 -2754 -2752 -2753 -2755 -2756 -2757 0
-2745 2754 -2752 -2753 -2755 -2756 -2757 0
-2093 -2752 -2753 -2755 -2756 -2757 0
2095 2758 0
2095 2759 0
1852 2760 0
2095 2761 0
1852 2762 0
2746 -2763 -2758 -2759 -2760 -2761 -2762 0
-2746 2763 -2758 -2759 -2760 -2761 -2762 0
2096 2764 0
2096 2765 0
1853 2766 0
2096 2767 0
1853 2768 0
2747 -2769 -2764 -2765 -2766 -2767 -2768 0
-2747 2769 -2764 -2765 -2766 -2767 -2768 0
-190 2770 0
-199 2770 0
190 199 -2770 0
2771 -2770 0
-2771 2770 0
-191 2772 0
-2771 2772 0
191 200 2771 -2772 0
2773 -2772 0
2772 -2773 0
-191 -2771 0
-200 -2771 0
2754 -2774 0
-2754 2774 0
2775 -2763 0
2763 -2775 0
2776 -2769 0
2769 -2776 0
-199 2777 0
-208 2777 0
-1862 2777 0
199 208 1862 -2777 0
2778 -2777 0
-2778 2777 0
-200 2779 0
-2778 2779 0
200 209 1864 2778 -2779 0
2780 -2779 0
2779 -2780 0
-200 -2778 0
-209 -2778 0
-1864 -2778 0
2105 2781 0
2782 0
2783 0
2105 2784 0
2774 2785 0
1863 2785 0
-2774 -2781 -2784 -2785 0
-1863 -2781 -2784 -2785 0
2106 2786 0
2787 0
2788 0
2106 2789 0
2775 2790 0
1865 2790 0
-2775 -2786 -2789 -2790 0
-1865 -2786 -2789 -2790 0
2107 2791 0
2792 0
2793 0
2107 2794 0
2776 2795 0
1866 2795 0
-2776 -2791 -2794 -2795 0
-1866 -2791 -2794 -2795 0
2796 -208 0
208 -2796 0
-209 2797 0
-2796 2797 0
209 2796 -2797 0
2798 -2797 0
2797 -2798 0
-2799 0
-2800 0
-2801 0
2802 -217 0
217 -2802 0
-218 2803 0
-2802 2803 0
218 2802 -2803 0
2804 -2803 0
2803 -2804 0
-2805 0
-2806 0
-2807 0
-217 2808 0
-226 2808 0
-1874 2808 0
217 226 1874 -2808 0
2809 -2808 0
-2809 2808 0
-227 2810 0
-2809 2810 0
218 227 1876 2809 -2810 0
2811 -2810 0
2810 -2811 0
-218 -2809 0
-227 -2809 0
-1876 -2809 0
2117 2812 0
2117 2813 0
2814 2815 0
1875 2815 0
2816 0
2817 0
-2814 -2812 -2813 -2815 0
-1875 -2812 -2813 -2815 0
2118 2818 0
2118 2819 0
2820 2821 0
1877 2821 0
2822 0
2823 0
-2820 -2818 -2819 -2821 0
-1877 -2818 -2819 -2821 0
2119 2824 0
2119 2825 0
2826 2827 0
1878 2827 0
2828 0
2829 0
-2826 -2824 -2825 -2827 0
-1878 -2824 -2825 -2827 0
-226 2830 0
-235 2830 0
226 235 -2830 0
2831 -2830 0
-2831 2830 0
-236 2832 0
-2831 2832 0
227 236 2831 -2832 0
2833 -2832 0
2832 -2833 0
-227 -2831 0
-236 -2831 0
2814 -2834 0
-2814 2834 0
2835 -2820 0
2820 -2835 0
2836 -2826 0
2826 -2836 0
-235 2837 0
-244 2837 0
-2128 2837 0
235 244 2128 -2837 0
2838 -2837 0
-2838 2837 0
-236 2839 0
-245 2839 0
-2838 2839 0
236 245 2130 2838 -2839 0
2840 -2839 0
2839 -2840 0
-236 -2838 0
-245 -2838 0
1886 2841 0
-2834 2842 0
2843 2842 0
2129 2842 0
1886 2844 0
2834 2845 0
-2843 2845 0
2129 2845 0
1886 2846 0
2834 -2843 -2841 -2842 -2844 -2845 -2846 0
-2834 2843 -2841 -2842 -2844 -2845 -2846 0
-2129 -2841 -2842 -2844 -2845 -2846 0
2131 2847 0
2131 2848 0
1887 2849 0
2131 2850 0
1887 2851 0
2835 -2852 -2847 -2848 -2849 -2850 -2851 0
-2835 2852 -2847 -2848 -2849 -2850 -2851 0
2132 2853 0
2132 2854 0
1888 2855 0
2132 2856 0
1888 2857 0
2836 -2858 -2853 -2854 -2855 -2856 -2857 0
-2836 2858 -2853 -2854 -2855 -2856 -2857 0
-244 2859 0
-253 2859 0
244 253 -2859 0
2860 -2859 0
-2860 2859 0
-245 2861 0
-2860 2861 0
245 255 2860 -2861 0
2862 -2861 0
2861 -2862 0
-245 -2860 0
-255 -2860 0
2843 -254 0
-2843 254 0
256 -2852 0
2852 -256 0
257 -2858 0
2858 -257 0
-253 2863 0
-265 2863 0
-1897 2863 0
253 265 1897 2864 -2863 0
2865 -2863 0
-2865 2863 0
-255 2866 0
-2865 2866 0
255 266 1899 2140 2865 -2866 0
2867 -2866 0
2866 -2867 0
-255 -2865 0
-266 -2865 0
-1899 -2865 0
2868 2869 0
2870 0
2871 0
2868 2872 0
254 2873 0
1898 2873 0
-254 -2869 -2872 -2873 0
-1898 -2869 -2872 -2873 0
-256 2874 0
1900 2874 0
2141 2874 0
2875 0
2876 0
256 2877 0
-1900 2877 0
2141 2877 0
256 2878 0
1900 2878 0
-2141 2878 0
-256 -2874 -2877 -2878 0
-1900 -2874 -2877 -2878 0
-2141 -2874 -2877 -2878 0
2142 2879 0
2880 0
2881 0
2142 2882 0
257 2883 0
1901 2883 0
-257 -2879 -2882 -2883 0
-1901 -2879 -2882 -2883 0
2884 -265 0
265 -2884 0
-266 2885 0
-2884 2885 0
266 2884 -2885 0
2886 -2885 0
2885 -2886 0
-2887 0
-2888 0
-2889 0
2890 -274 0
274 -2890 0
-275 2891 0
-2890 2891 0
275 2890 -2891 0
2892 -2891 0
2891 -2892 0
-2893 0
-2894 0
-2895 0
-274 2896 0
-283 2896 0
-1909 2896 0
274 283 1909 -2896 0
2897 -2896 0
-2897 2896 0
-284 2898 0
-2897 2898 0
275 284 1911 2897 -2898 0
2899 -2898 0
2898 -2899 0
-275 -2897 0
-284 -2897 0
-1911 -2897 0
2151 2900 0
2151 2901 0
2902 2903 0
1910 2903 0
2904 0
2905 0
-2902 -2900 -2901 -2903 0
-1910 -2900 -2901 -2903 0
2152 2906 0
2152 2907 0
2908 2909 0
1912 2909 0
2910 0
2911 0
-2908 -2906 -2907 -2909 0
-1912 -2906 -2907 -2909 0
2153 2912 0
2153 2913 0
2914 2915 0
1913 2915 0
2916 0
2917 0
-2914 -2912 -2913 -2915 0
-1913 -2912 -2913 -2915 0
-283 2918 0
-292 2918 0
283 292 -2918 0
2919 -2918 0
-2919 2918 0
-293 2920 0
-2919 2920 0
284 293 2919 -2920 0
2921 -2920 0
2920 -2921 0
-284 -2919 0
-293 -2919 0
2902 -2922 0
-2902 2922 0
2923 -2908 0
2908 -2923 0
2924 -2914 0
2914 -2924 0
-292 2925 0
-301 2925 0
-2162 2925 0
292 301 2162 -2925 0
2926 -2925 0
-2926 2925 0
-293 2927 0
-302 2927 0
-2926 2927 0
293 302 2164 2926 -2927 0
2928 -2927 0
2927 -2928 0
-293 -2926 0
-302 -2926 0
1921 2929 0
-2922 2930 0
2931 2930 0
2163 2930 0
1921 2932 0
2922 2933 0
-2931 2933 0
2163 2933 0
1921 2934 0
2922 -2931 -2929 -2930 -2932 -2933 -2934 0
-2922 2931 -2929 -2930 -2932 -2933 -2934 0
-2163 -2929 -2930 -2932 -2933 -2934 0
2165 2935 0
2165 2936 0
1922 2937 0
2165 2938 0
1922 2939 0
2923 -2940 -2935 -2936 -2937 -2938 -2939 0
-2923 2940 -2935 -2936 -2937 -2938 -2939 0
2166 2941 0
2166 2942 0
1923 2943 0
2166 2944 0
1923 2945 0
2924 -2946 -2941 -2942 -2943 -2944 -2945 0
-2924 2946 -2941 -2942 -2943 -2944 -2945 0
-301 2947 0
-310 2947 0
301 310 -2947 0
2948 -2947 0
-2948 2947 0
-302 2949 0
-2948 2949 0
302 312 2948 -2949 0
2950 -2949 0
2949 -2950 0
-302 -2948 0
-312 -2948 0
2931 -311 0
-2931 311 0
313 -2940 0
2940 -313 0
314 -2946 0
2946 -314 0
-310 2951 0
-322 2951 0
-1932 2951 0
310 322 1932 2174 -2951 0
2952 -2951 0
-2952 2951 0
-312 2953 0
-2952 2953 0
312 323 1934 2176 2952 -2953 0
2954 -2953 0
2953 -2954 0
-312 -2952 0
-323 -2952 0
-1934 -2952 0
2175 2955 0
2956 0
2957 0
2175 2958 0
311 2959 0
1933 2959 0
-311 -2955 -2958 -2959 0
-1933 -2955 -2958 -2959 0
-313 2960 0
1935 2960 0
2177 2960 0
2961 0
2962 0
313 2963 0
-1935 2963 0
2177 2963 0
313 2964 0
1935 2964 0
-2177 2964 0
-313 -2960 -2963 -2964 0
-1935 -2960 -2963 -2964 0
-2177 -2960 -2963 -2964 0
2178 2965 0
2966 0
2967 0
2178 2968 0
314 2969 0
1936 2969 0
-314 -2965 -2968 -2969 0
-1936 -2965 -2968 -2969 0
2970 -322 0
322 -2970 0
-323 2971 0
-2970 2971 0
323 2970 -2971 0
2972 -2971 0
2971 -2972 0
-2973 0
-2974 0
-2975 0
-2976 0
-2977 0
-2978 0
-2979 0
-2980 0
-2981 0
-2982 0
-2983 0
-2984 0
-2985 0
2187 2986 0
2187 2987 0
2988 2989 0
2990 0
2991 0
-2992 -2986 -2987 -2989 0
2188 2993 0
2188 2994 0
2995 2996 0
2997 0
2998 0
-2999 -2993 -2994 -2996 0
2189 3000 0
2189 3001 0
3002 3003 0
3004 0
3005 0
-3006 -3000 -3001 -3003 0
-3007 0
-3008 0
-3009 0
-3010 0
-2988 3011 0
3012 -2995 0
3013 -3002 0
-3014 0
-3015 0
-3016 0
-3017 0
2199 3018 0
2199 3019 0
1952 3020 0
2199 3021 0
1952 3022 0
-3011 3023 -3018 -3019 -3020 -3021 -3022 0
2200 3024 0
2200 3025 0
1953 3026 0
2200 3027 0
1953 3028 0
-3012 3029 -3024 -3025 -3026 -3027 -3028 0
2201 3030 0
2201 3031 0
1954 3032 0
2201 3033 0
1954 3034 0
-3013 3035 -3030 -3031 -3032 -3033 -3034 0
-3036 0
-3037 0
-3038 0
-3039 0
-3023 3040 0
3041 -3029 0
3042 -3035 0
-3043 0
-3044 0
-3045 0
-3046 0
2211 3047 0
3048 0
3049 0
2211 3050 0
1963 3051 0
-3040 -3047 -3050 -3051 0
2212 3052 0
3053 0
3054 0
2212 3055 0
1964 3056 0
-3041 -3052 -3055 -3056 0
2213 3057 0
3058 0
3059 0
2213 3060 0
1965 3061 0
-3042 -3057 -3060 -3061 0
-3062 0
-3063 0
-3064 0
-3065 0
-3066 0
-3067 0
3068 -379 0
379 -3068 0
-380 3069 0
-3068 3069 0
380 3068 -3069 0
3070 -3069 0
3069 -3070 0
-3071 0
-3072 0
-3073 0
3074 -625 0
625 -3074 0
-626 3075 0
-3074 3075 0
626 3074 -3075 0
3076 -3075 0
3075 -3076 0
-3077 0
-3078 0
-3079 0
3080 -867 0
867 -3080 0
-868 3081 0
-3080 3081 0
868 3080 -3081 0
3082 -3081 0
3081 -3082 0
-3083 0
-3084 0
-3085 0
-379 3086 0
-388 3086 0
379 388 -3086 0
3087 -3086 0
-3087 3086 0
-389 3088 0
-3087 3088 0
380 389 3087 -3088 0
3089 -3088 0
3088 -3089 0
-380 -3087 0
-389 -3087 0
2463 3090 0
2463 3091 0
3092 3093 0
3094 0
3095 0
-3096 -3090 -3091 -3093 0
2470 3097 0
2470 3098 0
3099 3100 0
3101 0
3102 0
-3103 -3097 -3098 -3100 0
2477 3104 0
2477 3105 0
3106 3107 0
3108 0
3109 0
-3110 -3104 -3105 -3107 0
-625 3111 0
-634 3111 0
625 634 -3111 0
3112 -3111 0
-3112 3111 0
-635 3113 0
-3112 3113 0
626 635 3112 -3113 0
3114 -3113 0
3113 -3114 0
-626 -3112 0
-635 -3112 0
1747 3115 0
1747 3116 0
1507 3117 0
3118 0
3119 0
-3120 -3115 -3116 -3117 0
1748 3121 0
1748 3122 0
1508 3123 0
3124 0
3125 0
-3126 -3121 -3122 -3123 0
1749 3127 0
1749 3128 0
1509 3129 0
3130 0
3131 0
-3132 -3127 -3128 -3129 0
-867 3133 0
-876 3133 0
867 876 -3133 0
3134 -3133 0
-3134 3133 0
-877 3135 0
-3134 3135 0
868 877 3134 -3135 0
3136 -3135 0
3135 -3136 0
-868 -3134 0
-877 -3134 0
1758 3137 0
1758 3138 0
1518 3139 0
3140 0
3141 0
-3142 -3137 -3138 -3139 0
1759 3143 0
1759 3144 0
1519 3145 0
3146 0
3147 0
-3148 -3143 -3144 -3145 0
1760 3149 0
1760 3150 0
1520 3151 0
3152 0
3153 0
-3154 -3149 -3150 -3151 0
-388 3155 0
-397 3155 0
388 397 -3155 0
3156 -3155 0
-3156 3155 0
-389 3157 0
-398 3157 0
-3156 3157 0
389 398 3156 -3157 0
3158 -3157 0
3157 -3158 0
-389 -3156 0
-398 -3156 0
3096 -3159 0
3103 -3160 0
3110 -3161 0
-634 3162 0
-643 3162 0
634 643 -3162 0
3163 -3162 0
-3163 3162 0
-635 3164 0
-644 3164 0
-3163 3164 0
635 644 3163 -3164 0
3165 -3164 0
3164 -3165 0
-635 -3163 0
-644 -3163 0
3120 -3166 0
3126 -3167 0
3132 -3168 0
-876 3169 0
-885 3169 0
876 885 -3169 0
3170 -3169 0
-3170 3169 0
-877 3171 0
-886 3171 0
-3170 3171 0
877 886 3170 -3171 0
3172 -3171 0
3171 -3172 0
-877 -3170 0
-886 -3170 0
3142 -3173 0
3148 -3174 0
3154 -3175 0
-397 3176 0
-406 3176 0
397 406 -3176 0
3177 -3176 0
-3177 3176 0
-398 3178 0
-407 3178 0
-3177 3178 0
398 407 3177 -3178 0
3179 -3178 0
3178 -3179 0
-398 -3177 0
-407 -3177 0
3159 -3180 0
3160 -3181 0
3161 -3182 0
-643 3183 0
-652 3183 0
643 652 -3183 0
3184 -3183 0
-3184 3183 0
-644 3185 0
-653 3185 0
-3184 3185 0
644 653 3184 -3185 0
3186 -3185 0
3185 -3186 0
-644 -3184 0
-653 -3184 0
3166 -3187 0
3167 -3188 0
3168 -3189 0
-885 3190 0
-894 3190 0
885 894 -3190 0
3191 -3190 0
-3191 3190 0
-886 3192 0
-895 3192 0
-3191 3192 0
886 895 3191 -3192 0
3193 -3192 0
3192 -3193 0
-886 -3191 0
-895 -3191 0
3173 -3194 0
3174 -3195 0
3175 -3196 0
-406 3197 0
-415 3197 0
406 415 -3197 0
3198 -3197 0
-3198 3197 0
-407 3199 0
-416 3199 0
-3198 3199 0
407 416 3198 -3199 0
3200 -3199 0
3199 -3200 0
-407 -3198 0
-416 -3198 0
3180 -3201 0
3181 -3202 0
3182 -3203 0
-652 3204 0
-661 3204 0
652 661 -3204 0
3205 -3204 0
-3205 3204 0
-653 3206 0
-662 3206 0
-3205 3206 0
653 662 3205 -3206 0
3207 -3206 0
3206 -3207 0
-653 -3205 0
-662 -3205 0
3187 -3208 0
3188 -3209 0
3189 -3210 0
-894 3211 0
-903 3211 0
894 903 -3211 0
3212 -3211 0
-3212 3211 0
-895 3213 0
-904 3213 0
-3212 3213 0
895 904 3212 -3213 0
3214 -3213 0
3213 -3214 0
-895 -3212 0
-904 -3212 0
3194 -3215 0
3195 -3216 0
3196 -3217 0
-415 3218 0
-424 3218 0
-1529 3218 0
-1769 3218 0
415 424 1529 1769 -3218 0
3219 -3218 0
-3219 3218 0
-416 3220 0
-425 3220 0
-3219 3220 0
416 425 1531 1771 3219 -3220 0
3221 -3220 0
3220 -3221 0
-416 -3219 0
-425 -3219 0
-1531 -3219 0
-1771 -3219 0
-3222 3223 0
1530 3223 0
1770 3223 0
3222 3224 0
-1530 3224 0
1770 3224 0
3222 3225 0
1530 3225 0
-1770 3225 0
3201 3226 0
3201 3227 0
3201 -3222 -3223 -3224 -3225 -3226 -3227 0
-1530 -3223 -3224 -3225 -3226 -3227 0
-1770 -3223 -3224 -3225 -3226 -3227 0
-3228 3229 0
1532 3229 0
1772 3229 0
3228 3230 0
-1532 3230 0
1772 3230 0
3228 3231 0
1532 3231 0
-1772 3231 0
3202 3232 0
3202 3233 0
3202 -3228 -3229 -3230 -3231 -3232 -3233 0
-1532 -3229 -3230 -3231 -3232 -3233 0
-1772 -3229 -3230 -3231 -3232 -3233 0
-3234 3235 0
1533 3235 0
1773 3235 0
3234 3236 0
-1533 3236 0
1773 3236 0
3234 3237 0
1533 3237 0
-1773 3237 0
3203 3238 0
3203 3239 0
3203 -3234 -3235 -3236 -3237 -3238 -3239 0
-1533 -3235 -3236 -3237 -3238 -3239 0
-1773 -3235 -3236 -3237 -3238 -3239 0
-661 3240 0
-670 3240 0
-1541 3240 0
661 670 1541 -3240 0
3241 -3240 0
-3241 3240 0
-662 3242 0
-671 3242 0
-3241 3242 0
662 671 1543 3241 -3242 0
3243 -3242 0
3242 -3243 0
-662 -3241 0
-671 -3241 0
-1543 -3241 0
1781 3244 0
1781 3245 0
3246 3247 0
1542 3247 0
1781 3248 0
3208 3249 0
3208 -3246 -3244 -3245 -3247 -3248 -3249 0
-1542 -3244 -3245 -3247 -3248 -3249 0
1782 3250 0
1782 3251 0
1544 3252 0
1782 3253 0
1544 3254 0
3209 -3255 -3250 -3251 -3252 -3253 -3254 0
1783 3256 0
1783 3257 0
3258 3259 0
1545 3259 0
1783 3260 0
3210 3261 0
3210 -3258 -3256 -3257 -3259 -3260 -3261 0
-1545 -3256 -3257 -3259 -3260 -3261 0
-903 3262 0
-912 3262 0
-1553 3262 0
-1792 3262 0
903 912 1553 1792 -3262 0
3263 -3262 0
-3263 3262 0
-904 3264 0
-913 3264 0
-3263 3264 0
904 913 1555 1794 3263 -3264 0
3265 -3264 0
3264 -3265 0
-904 -3263 0
-913 -3263 0
-1555 -3263 0
-1794 -3263 0
-3266 3267 0
1554 3267 0
1793 3267 0
3266 3268 0
-1554 3268 0
1793 3268 0
3266 3269 0
1554 3269 0
-1793 3269 0
3215 3270 0
3215 3271 0
3215 -3266 -3267 -3268 -3269 -3270 -3271 0
-1554 -3267 -3268 -3269 -3270 -3271 0
-1793 -3267 -3268 -3269 -3270 -3271 0
-3272 3273 0
1556 3273 0
1795 3273 0
3272 3274 0
-1556 3274 0
1795 3274 0
3272 3275 0
1556 3275 0
-1795 3275 0
3216 3276 0
3216 3277 0
3216 -3272 -3273 -3274 -3275 -3276 -3277 0
-1556 -3273 -3274 -3275 -3276 -3277 0
-1795 -3273 -3274 -3275 -3276 -3277 0
-3278 3279 0
1557 3279 0
1796 3279 0
3278 3280 0
-1557 3280 0
1796 3280 0
3278 3281 0
1557 3281 0
-1796 3281 0
3217 3282 0
3217 3283 0
3217 -3278 -3279 -3280 -3281 -3282 -3283 0
-1557 -3279 -3280 -3281 -3282 -3283 0
-1796 -3279 -3280 -3281 -3282 -3283 0
-424 3284 0
-433 3284 0
424 433 -3284 0
3285 -3284 0
-3285 3284 0
-425 3286 0
-434 3286 0
-3285 3286 0
425 434 3285 -3286 0
3287 -3286 0
3286 -3287 0
-425 -3285 0
-434 -3285 0
3222 -3288 0
-3222 3288 0
3289 -3228 0
3228 -3289 0
3290 -3234 0
3234 -3290 0
-670 3291 0
-679 3291 0
670 679 -3291 0
3292 -3291 0
-3292 3291 0
-671 3293 0
-680 3293 0
-3292 3293 0
671 680 3292 -3293 0
3294 -3293 0
3293 -3294 0
-671 -3292 0
-680 -3292 0
3295 -3246 0
3246 -3295 0
3296 -3255 0
3255 -3296 0
3297 -3258 0
3258 -3297 0
-912 3298 0
-921 3298 0
912 921 -3298 0
3299 -3298 0
-3299 3298 0
-913 3300 0
-922 3300 0
-3299 3300 0
913 922 3299 -3300 0
3301 -3300 0
3300 -3301 0
-913 -3299 0
-922 -3299 0
3302 -3266 0
3266 -3302 0
3303 -3272 0
3272 -3303 0
3304 -3278 0
3278 -3304 0
-433 3305 0
-442 3305 0
433 442 -3305 0
3306 -3305 0
-3306 3305 0
-434 3307 0
-443 3307 0
-3306 3307 0
434 443 3306 -3307 0
3308 -3307 0
3307 -3308 0
-434 -3306 0
-443 -3306 0
3309 -3288 0
3288 -3309 0
3310 -3289 0
3289 -3310 0
3311 -3290 0
3290 -3311 0
-679 3312 0
-688 3312 0
679 688 -3312 0
3313 -3312 0
-3313 3312 0
-680 3314 0
-689 3314 0
-3313 3314 0
680 689 3313 -3314 0
3315 -3314 0
3314 -3315 0
-680 -3313 0
-689 -3313 0
3316 -3295 0
3295 -3316 0
3317 -3296 0
3296 -3317 0
3318 -3297 0
3297 -3318 0
-921 3319 0
-930 3319 0
921 930 -3319 0
3320 -3319 0
-3320 3319 0
-922 3321 0
-931 3321 0
-3320 3321 0
922 931 3320 -3321 0
3322 -3321 0
3321 -3322 0
-922 -3320 0
-931 -3320 0
3323 -3302 0
3302 -3323 0
3324 -3303 0
3303 -3324 0
3325 -3304 0
3304 -3325 0
-442 3326 0
-451 3326 0
442 451 -3326 0
3327 -3326 0
-3327 3326 0
-443 3328 0
-453 3328 0
-3327 3328 0
443 453 3327 -3328 0
3329 -3328 0
3328 -3329 0
-443 -3327 0
-453 -3327 0
452 -3309 0
3309 -452 0
454 -3310 0
3310 -454 0
455 -3311 0
3311 -455 0
-688 3330 0
-697 3330 0
688 697 -3330 0
3331 -3330 0
-3331 3330 0
-689 3332 0
-698 3332 0
-3331 3332 0
689 698 3331 -3332 0
3333 -3332 0
3332 -3333 0
-689 -3331 0
-698 -3331 0
3334 -3316 0
3316 -3334 0
3335 -3317 0
3317 -3335 0
3336 -3318 0
3318 -3336 0
-930 3337 0
-939 3337 0
930 939 -3337 0
3338 -3337 0
-3338 3337 0
-931 3339 0
-941 3339 0
-3338 3339 0
931 941 3338 -3339 0
3340 -3339 0
3339 -3340 0
-931 -3338 0
-941 -3338 0
940 -3323 0
3323 -940 0
942 -3324 0
3324 -942 0
943 -3325 0
3325 -943 0
-451 3341 0
-463 3341 0
-1565 3341 0
-1804 3341 0
451 463 1565 1804 -3341 0
3342 -3341 0
-3342 3341 0
-453 3343 0
-464 3343 0
-3342 3343 0
453 464 1567 1806 3342 -3343 0
3344 -3343 0
3343 -3344 0
-453 -3342 0
-464 -3342 0
-1567 -3342 0
-1806 -3342 0
-452 3345 0
-3346 3345 0
1566 3345 0
1805 3345 0
-452 3347 0
3346 3347 0
-1566 3347 0
1805 3347 0
-452 3348 0
3346 3348 0
1566 3348 0
-1805 3348 0
452 3349 0
-3346 3349 0
-1566 3349 0
1805 3349 0
452 3350 0
-3346 3350 0
1566 3350 0
-1805 3350 0
452 -3346 -3345 -3347 -3348 -3349 -3350 0
-452 3346 -3345 -3347 -3348 -3349 -3350 0
-1566 -3345 -3347 -3348 -3349 -3350 0
-1805 -3345 -3347 -3348 -3349 -3350 0
-454 3351 0
-3352 3351 0
1568 3351 0
1807 3351 0
-454 3353 0
3352 3353 0
-1568 3353 0
1807 3353 0
-454 3354 0
3352 3354 0
1568 3354 0
-1807 3354 0
454 3355 0
-3352 3355 0
-1568 3355 0
1807 3355 0
454 3356 0
-3352 3356 0
1568 3356 0
-1807 3356 0
454 -3352 -3351 -3353 -3354 -3355 -3356 0
-454 3352 -3351 -3353 -3354 -3355 -3356 0
-1568 -3351 -3353 -3354 -3355 -3356 0
-1807 -3351 -3353 -3354 -3355 -3356 0
-455 3357 0
-3358 3357 0
1569 3357 0
1808 3357 0
-455 3359 0
3358 3359 0
-1569 3359 0
1808 3359 0
-455 3360 0
3358 3360 0
1569 3360 0
-1808 3360 0
455 3361 0
-3358 3361 0
-1569 3361 0
1808 3361 0
455 3362 0
-3358 3362 0
1569 3362 0
-1808 3362 0
455 -3358 -3357 -3359 -3360 -3361 -3362 0
-455 3358 -3357 -3359 -3360 -3361 -3362 0
-1569 -3357 -3359 -3360 -3361 -3362 0
-1808 -3357 -3359 -3360 -3361 -3362 0
-697 3363 0
-706 3363 0
-1577 3363 0
697 706 1577 -3363 0
3364 -3363 0
-3364 3363 0
-698 3365 0
-707 3365 0
-3364 3365 0
698 707 1579 3364 -3365 0
3366 -3365 0
3365 -3366 0
-698 -3364 0
-707 -3364 0
-1579 -3364 0
1816 3367 0
1816 3368 0
3369 3370 0
1578 3370 0
1816 3371 0
3334 3372 0
1578 3372 0
3334 -3369 -3367 -3368 -3370 -3371 -3372 0
-3334 3369 -3367 -3368 -3370 -3371 -3372 0
-1578 -3367 -3368 -3370 -3371 -3372 0
1817 3373 0
1817 3374 0
1580 3375 0
1817 3376 0
1580 3377 0
-3335 3378 -3373 -3374 -3375 -3376 -3377 0
1818 3379 0
1818 3380 0
3381 3382 0
1581 3382 0
1818 3383 0
3336 3384 0
1581 3384 0
3336 -3381 -3379 -3380 -3382 -3383 -3384 0
-3336 3381 -3379 -3380 -3382 -3383 -3384 0
-1581 -3379 -3380 -3382 -3383 -3384 0
-939 3385 0
-951 3385 0
-1589 3385 0
-1827 3385 0
939 951 1589 1827 -3385 0
3386 -3385 0
-3386 3385 0
-941 3387 0
-952 3387 0
-3386 3387 0
941 952 1591 1829 3386 -3387 0
3388 -3387 0
3387 -3388 0
-941 -3386 0
-952 -3386 0
-1591 -3386 0
-1829 -3386 0
-3389 3390 0
1590 3390 0
1828 3390 0
-940 3391 0
3389 3391 0
-1590 3391 0
1828 3391 0
-940 3392 0
3389 3392 0
1590 3392 0
-1828 3392 0
940 3393 0
-3389 3393 0
1828 3393 0
940 3394 0
-3389 3394 0
1590 3394 0
940 -3389 -3390 -3391 -3392 -3393 -3394 0
-940 3389 -3390 -3391 -3392 -3393 -3394 0
-1590 -3390 -3391 -3392 -3393 -3394 0
-1828 -3390 -3391 -3392 -3393 -3394 0
-942 3395 0
-3396 3395 0
1592 3395 0
1830 3395 0
-942 3397 0
3396 3397 0
-1592 3397 0
1830 3397 0
-942 3398 0
3396 3398 0
1592 3398 0
-1830 3398 0
942 3399 0
-3396 3399 0
-1592 3399 0
1830 3399 0
942 3400 0
-3396 3400 0
1592 3400 0
-1830 3400 0
942 -3396 -3395 -3397 -3398 -3399 -3400 0
-942 3396 -3395 -3397 -3398 -3399 -3400 0
-1592 -3395 -3397 -3398 -3399 -3400 0
-1830 -3395 -3397 -3398 -3399 -3400 0
-943 3401 0
-3402 3401 0
1593 3401 0
1831 3401 0
-943 3403 0
3402 3403 0
-1593 3403 0
1831 3403 0
-943 3404 0
3402 3404 0
1593 3404 0
-1831 3404 0
943 3405 0
-3402 3405 0
-1593 3405 0
1831 3405 0
943 3406 0
-3402 3406 0
1593 3406 0
-1831 3406 0
943 -3402 -3401 -3403 -3404 -3405 -3406 0
-943 3402 -3401 -3403 -3404 -3405 -3406 0
-1593 -3401 -3403 -3404 -3405 -3406 0
-1831 -3401 -3403 -3404 -3405 -3406 0
-463 3407 0
-472 3407 0
463 472 -3407 0
3408 -3407 0
-3408 3407 0
-464 3409 0
-473 3409 0
-3408 3409 0
464 473 3408 -3409 0
3410 -3409 0
3409 -3410 0
-464 -3408 0
-473 -3408 0
3346 -3411 0
-3346 3411 0
3412 -3352 0
3352 -3412 0
3413 -3358 0
3358 -3413 0
-706 3414 0
-715 3414 0
706 715 -3414 0
3415 -3414 0
-3415 3414 0
-707 3416 0
-717 3416 0
-3415 3416 0
707 717 3415 -3416 0
3417 -3416 0
3416 -3417 0
-707 -3415 0
-717 -3415 0
716 -3369 0
3369 -716 0
3418 -3378 0
718 -3381 0
3381 -718 0
-951 3419 0
-960 3419 0
951 960 -3419 0
3420 -3419 0
-3420 3419 0
-952 3421 0
-961 3421 0
-3420 3421 0
952 961 3420 -3421 0
3422 -3421 0
3421 -3422 0
-952 -3420 0
-961 -3420 0
3423 -3389 0
3389 -3423 0
3424 -3396 0
3396 -3424 0
3425 -3402 0
3402 -3425 0
-472 3426 0
-481 3426 0
472 481 -3426 0
3427 -3426 0
-3427 3426 0
-473 3428 0
-482 3428 0
-3427 3428 0
473 482 3427 -3428 0
3429 -3428 0
3428 -3429 0
-473 -3427 0
-482 -3427 0
3430 -3411 0
3411 -3430 0
3431 -3412 0
3412 -3431 0
3432 -3413 0
3413 -3432 0
-715 3433 0
-726 3433 0
715 726 -3433 0
3434 -3433 0
-3434 3433 0
-717 3435 0
-727 3435 0
-3434 3435 0
717 727 3434 -3435 0
3436 -3435 0
3435 -3436 0
-717 -3434 0
-727 -3434 0
3437 -716 0
716 -3437 0
3438 -3418 0
3439 -718 0
718 -3439 0
-960 3440 0
-969 3440 0
960 969 -3440 0
3441 -3440 0
-3441 3440 0
-961 3442 0
-970 3442 0
-3441 3442 0
961 970 3441 -3442 0
3443 -3442 0
3442 -3443 0
-961 -3441 0
-970 -3441 0
3444 -3423 0
3423 -3444 0
3445 -3424 0
3424 -3445 0
3446 -3425 0
3425 -3446 0
-481 3447 0
-490 3447 0
481 490 -3447 0
3448 -3447 0
-3448 3447 0
-482 3449 0
-492 3449 0
-3448 3449 0
482 492 3448 -3449 0
3450 -3449 0
3449 -3450 0
-482 -3448 0
-492 -3448 0
491 -3430 0
3430 -491 0
493 -3431 0
3431 -493 0
494 -3432 0
3432 -494 0
-726 3451 0
-735 3451 0
726 735 -3451 0
3452 -3451 0
-3452 3451 0
-727 3453 0
-737 3453 0
-3452 3453 0
727 737 3452 -3453 0
3454 -3453 0
3453 -3454 0
-727 -3452 0
-737 -3452 0
736 -3437 0
3437 -736 0
738 -3438 0
739 -3439 0
3439 -739 0
-969 3455 0
-978 3455 0
969 978 -3455 0
3456 -3455 0
-3456 3455 0
-970 3457 0
-980 3457 0
-3456 3457 0
970 980 3456 -3457 0
3458 -3457 0
3457 -3458 0
-970 -3456 0
-980 -3456 0
979 -3444 0
3444 -979 0
981 -3445 0
3445 -981 0
982 -3446 0
3446 -982 0
-490 3459 0
-502 3459 0
-1601 3459 0
-1839 3459 0
490 502 1601 1839 -3459 0
3460 -3459 0
-3460 3459 0
-492 3461 0
-503 3461 0
-3460 3461 0
492 503 1603 1841 3460 -3461 0
3462 -3461 0
3461 -3462 0
-492 -3460 0
-503 -3460 0
-1603 -3460 0
-1841 -3460 0
-491 3463 0
-3464 3463 0
1602 3463 0
1840 3463 0
-491 3465 0
3464 3465 0
-1602 3465 0
1840 3465 0
-491 3466 0
3464 3466 0
1602 3466 0
-1840 3466 0
491 3467 0
-3464 3467 0
-1602 3467 0
1840 3467 0
491 3468 0
-3464 3468 0
1602 3468 0
-1840 3468 0
491 -3464 -3463 -3465 -3466 -3467 -3468 0
-491 3464 -3463 -3465 -3466 -3467 -3468 0
-1602 -3463 -3465 -3466 -3467 -3468 0
-1840 -3463 -3465 -3466 -3467 -3468 0
-493 3469 0
-3470 3469 0
1604 3469 0
1842 3469 0
-493 3471 0
3470 3471 0
-1604 3471 0
1842 3471 0
-493 3472 0
3470 3472 0
1604 3472 0
-1842 3472 0
493 3473 0
-3470 3473 0
-1604 3473 0
1842 3473 0
493 3474 0
-3470 3474 0
1604 3474 0
-1842 3474 0
493 -3470 -3469 -3471 -3472 -3473 -3474 0
-493 3470 -3469 -3471 -3472 -3473 -3474 0
-1604 -3469 -3471 -3472 -3473 -3474 0
-1842 -3469 -3471 -3472 -3473 -3474 0
-494 3475 0
-3476 3475 0
1605 3475 0
1843 3475 0
-494 3477 0
3476 3477 0
-1605 3477 0
1843 3477 0
-494 3478 0
3476 3478 0
1605 3478 0
-1843 3478 0
494 3479 0
-3476 3479 0
-1605 3479 0
1843 3479 0
494 3480 0
-3476 3480 0
1605 3480 0
-1843 3480 0
494 -3476 -3475 -3477 -3478 -3479 -3480 0
-494 3476 -3475 -3477 -3478 -3479 -3480 0
-1605 -3475 -3477 -3478 -3479 -3480 0
-1843 -3475 -3477 -3478 -3479 -3480 0
-735 3481 0
-747 3481 0
-1613 3481 0
735 747 1613 -3481 0
3482 -3481 0
-3482 3481 0
-737 3483 0
-748 3483 0
-3482 3483 0
737 748 1615 3482 -3483 0
3484 -3483 0
3483 -3484 0
-737 -3482 0
-748 -3482 0
-1615 -3482 0
1851 3485 0
1851 3486 0
-736 3487 0
3488 3487 0
1614 3487 0
1851 3489 0
736 3490 0
-3488 3490 0
1614 3490 0
736 -3488 -3485 -3486 -3487 -3489 -3490 0
-736 3488 -3485 -3486 -3487 -3489 -3490 0
-1614 -3485 -3486 -3487 -3489 -3490 0
1852 3491 0
1852 3492 0
1616 3493 0
1852 3494 0
1616 3495 0
-738 3496 -3491 -3492 -3493 -3494 -3495 0
1853 3497 0
1853 3498 0
-739 3499 0
3500 3499 0
1617 3499 0
1853 3501 0
739 3502 0
-3500 3502 0
1617 3502 0
739 -3500 -3497 -3498 -3499 -3501 -3502 0
-739 3500 -3497 -3498 -3499 -3501 -3502 0
-1617 -3497 -3498 -3499 -3501 -3502 0
-978 3503 0
-990 3503 0
-1625 3503 0
-1862 3503 0
978 990 1625 1862 -3503 0
3504 -3503 0
-3504 3503 0
-980 3505 0
-991 3505 0
-3504 3505 0
980 991 1627 1864 3504 -3505 0
3506 -3505 0
3505 -3506 0
-980 -3504 0
-991 -3504 0
-1627 -3504 0
-1864 -3504 0
-979 3507 0
-3508 3507 0
1626 3507 0
1863 3507 0
-979 3509 0
3508 3509 0
-1626 3509 0
1863 3509 0
-979 3510 0
3508 3510 0
1626 3510 0
-1863 3510 0
979 3511 0
-3508 3511 0
-1626 3511 0
1863 3511 0
979 3512 0
-3508 3512 0
1626 3512 0
-1863 3512 0
979 -3508 -3507 -3509 -3510 -3511 -3512 0
-979 3508 -3507 -3509 -3510 -3511 -3512 0
-1626 -3507 -3509 -3510 -3511 -3512 0
-1863 -3507 -3509 -3510 -3511 -3512 0
-981 3513 0
-3514 3513 0
1628 3513 0
1865 3513 0
-981 3515 0
3514 3515 0
-1628 3515 0
1865 3515 0
-981 3516 0
3514 3516 0
1628 3516 0
-1865 3516 0
981 3517 0
-3514 3517 0
-1628 3517 0
1865 3517 0
981 3518 0
-3514 3518 0
1628 3518 0
-1865 3518 0
981 -3514 -3513 -3515 -3516 -3517 -3518 0
-981 3514 -3513 -3515 -3516 -3517 -3518 0
-1628 -3513 -3515 -3516 -3517 -3518 0
-1865 -3513 -3515 -3516 -3517 -3518 0
-982 3519 0
-3520 3519 0
1629 3519 0
1866 3519 0
-982 3521 0
3520 3521 0
-1629 3521 0
1866 3521 0
-982 3522 0
3520 3522 0
1629 3522 0
-1866 3522 0
982 3523 0
-3520 3523 0
-1629 3523 0
1866 3523 0
982 3524 0
-3520 3524 0
1629 3524 0
-1866 3524 0
982 -3520 -3519 -3521 -3522 -3523 -3524 0
-982 3520 -3519 -3521 -3522 -3523 -3524 0
-1629 -3519 -3521 -3522 -3523 -3524 0
-1866 -3519 -3521 -3522 -3523 -3524 0
-502 3525 0
-511 3525 0
502 511 -3525 0
3526 -3525 0
-3526 3525 0
-503 3527 0
-512 3527 0
-3526 3527 0
503 512 3526 -3527 0
3528 -3527 0
3527 -3528 0
-503 -3526 0
-512 -3526 0
3464 -3529 0
-3464 3529 0
3530 -3470 0
3470 -3530 0
3531 -3476 0
3476 -3531 0
-747 3532 0
-756 3532 0
747 756 -3532 0
3533 -3532 0
-3533 3532 0
-748 3534 0
-757 3534 0
-3533 3534 0
748 757 3533 -3534 0
3535 -3534 0
3534 -3535 0
-748 -3533 0
-757 -3533 0
3536 -3488 0
3488 -3536 0
3537 -3496 0
3538 -3500 0
3500 -3538 0
-990 3539 0
-999 3539 0
990 999 -3539 0
3540 -3539 0
-3540 3539 0
-991 3541 0
-1000 3541 0
-3540 3541 0
991 1000 3540 -3541 0
3542 -3541 0
3541 -3542 0
-991 -3540 0
-1000 -3540 0
3543 -3508 0
3508 -3543 0
3544 -3514 0
3514 -3544 0
3545 -3520 0
3520 -3545 0
-511 3546 0
-520 3546 0
511 520 -3546 0
3547 -3546 0
-3547 3546 0
-512 3548 0
-521 3548 0
-3547 3548 0
512 521 3547 -3548 0
3549 -3548 0
3548 -3549 0
-512 -3547 0
-521 -3547 0
3550 -3529 0
3529 -3550 0
3551 -3530 0
3530 -3551 0
3552 -3531 0
3531 -3552 0
-756 3553 0
-765 3553 0
756 765 -3553 0
3554 -3553 0
-3554 3553 0
-757 3555 0
-766 3555 0
-3554 3555 0
757 766 3554 -3555 0
3556 -3555 0
3555 -3556 0
-757 -3554 0
-766 -3554 0
3557 -3536 0
3536 -3557 0
3558 -3537 0
3559 -3538 0
3538 -3559 0
-999 3560 0
-1008 3560 0
999 1008 -3560 0
3561 -3560 0
-3561 3560 0
-1000 3562 0
-1009 3562 0
-3561 3562 0
1000 1009 3561 -3562 0
3563 -3562 0
3562 -3563 0
-1000 -3561 0
-1009 -3561 0
3564 -3543 0
3543 -3564 0
3565 -3544 0
3544 -3565 0
3566 -3545 0
3545 -3566 0
-520 3567 0
-529 3567 0
520 529 -3567 0
3568 -3567 0
-3568 3567 0
-521 3569 0
-531 3569 0
-3568 3569 0
521 531 3568 -3569 0
3570 -3569 0
3569 -3570 0
-521 -3568 0
-531 -3568 0
530 -3550 0
3550 -530 0
532 -3551 0
3551 -532 0
533 -3552 0
3552 -533 0
-765 3571 0
-774 3571 0
765 774 -3571 0
3572 -3571 0
-3572 3571 0
-766 3573 0
-776 3573 0
-3572 3573 0
766 776 3572 -3573 0
3574 -3573 0
3573 -3574 0
-766 -3572 0
-776 -3572 0
775 -3557 0
3557 -775 0
777 -3558 0
778 -3559 0
3559 -778 0
-1008 3575 0
-1017 3575 0
1008 1017 -3575 0
3576 -3575 0
-3576 3575 0
-1009 3577 0
-1019 3577 0
-3576 3577 0
1009 1019 3576 -3577 0
3578 -3577 0
3577 -3578 0
-1009 -3576 0
-1019 -3576 0
1018 -3564 0
3564 -1018 0
1020 -3565 0
3565 -1020 0
1021 -3566 0
3566 -1021 0
-529 3579 0
-541 3579 0
-1637 3579 0
-1874 3579 0
529 541 1637 1874 -3579 0
3580 -3579 0
-3580 3579 0
-531 3581 0
-542 3581 0
-3580 3581 0
531 542 1639 1876 3580 -3581 0
3582 -3581 0
3581 -3582 0
-531 -3580 0
-542 -3580 0
-1639 -3580 0
-1876 -3580 0
-530 3583 0
-3584 3583 0
1638 3583 0
1875 3583 0
-530 3585 0
3584 3585 0
-1638 3585 0
1875 3585 0
-530 3586 0
3584 3586 0
1638 3586 0
-1875 3586 0
530 3587 0
-3584 3587 0
-1638 3587 0
1875 3587 0
530 3588 0
-3584 3588 0
1638 3588 0
-1875 3588 0
530 -3584 -3583 -3585 -3586 -3587 -3588 0
-530 3584 -3583 -3585 -3586 -3587 -3588 0
-1638 -3583 -3585 -3586 -3587 -3588 0
-1875 -3583 -3585 -3586 -3587 -3588 0
-532 3589 0
-3590 3589 0
1640 3589 0
1877 3589 0
-532 3591 0
3590 3591 0
-1640 3591 0
1877 3591 0
-532 3592 0
3590 3592 0
1640 3592 0
-1877 3592 0
532 3593 0
-3590 3593 0
-1640 3593 0
1877 3593 0
532 3594 0
-3590 3594 0
1640 3594 0
-1877 3594 0
532 -3590 -3589 -3591 -3592 -3593 -3594 0
-532 3590 -3589 -3591 -3592 -3593 -3594 0
-1640 -3589 -3591 -3592 -3593 -3594 0
-1877 -3589 -3591 -3592 -3593 -3594 0
-533 3595 0
-3596 3595 0
1641 3595 0
1878 3595 0
-533 3597 0
3596 3597 0
-1641 3597 0
1878 3597 0
-533 3598 0
3596 3598 0
1641 3598 0
-1878 3598 0
533 3599 0
-3596 3599 0
-1641 3599 0
1878 3599 0
533 3600 0
-3596 3600 0
1641 3600 0
-1878 3600 0
533 -3596 -3595 -3597 -3598 -3599 -3600 0
-533 3596 -3595 -3597 -3598 -3599 -3600 0
-1641 -3595 -3597 -3598 -3599 -3600 0
-1878 -3595 -3597 -3598 -3599 -3600 0
-774 3601 0
-786 3601 0
-1649 3601 0
774 786 1649 -3601 0
3602 -3601 0
-3602 3601 0
-776 3603 0
-787 3603 0
-3602 3603 0
776 787 1651 3602 -3603 0
3604 -3603 0
3603 -3604 0
-776 -3602 0
-787 -3602 0
-1651 -3602 0
1886 3605 0
1886 3606 0
3607 3608 0
1650 3608 0
1886 3609 0
775 3610 0
1650 3610 0
775 -3607 -3605 -3606 -3608 -3609 -3610 0
-775 3607 -3605 -3606 -3608 -3609 -3610 0
-1650 -3605 -3606 -3608 -3609 -3610 0
1887 3611 0
1887 3612 0
1652 3613 0
1887 3614 0
1652 3615 0
-777 3616 -3611 -3612 -3613 -3614 -3615 0
1888 3617 0
1888 3618 0
3619 3620 0
1653 3620 0
1888 3621 0
778 3622 0
1653 3622 0
778 -3619 -3617 -3618 -3620 -3621 -3622 0
-778 3619 -3617 -3618 -3620 -3621 -3622 0
-1653 -3617 -3618 -3620 -3621 -3622 0
-1017 3623 0
-1029 3623 0
-1661 3623 0
-1897 3623 0
1017 1029 1661 1897 -3623 0
3624 -3623 0
-3624 3623 0
-1019 3625 0
-1030 3625 0
-3624 3625 0
1019 1030 1663 1899 3624 -3625 0
3626 -3625 0
3625 -3626 0
-1019 -3624 0
-1030 -3624 0
-1663 -3624 0
-1899 -3624 0
-1018 3627 0
1662 3627 0
1898 3627 0
-1018 3628 0
3629 3628 0
1898 3628 0
-1018 3630 0
3629 3630 0
1662 3630 0
1018 3631 0
-3629 3631 0
-1662 3631 0
1898 3631 0
1018 3632 0
-3629 3632 0
1662 3632 0
-1898 3632 0
1018 -3629 -3627 -3628 -3630 -3631 -3632 0
-1018 3629 -3627 -3628 -3630 -3631 -3632 0
-1662 -3627 -3628 -3630 -3631 -3632 0
-1898 -3627 -3628 -3630 -3631 -3632 0
-1020 3633 0
-3634 3633 0
1664 3633 0
1900 3633 0
-1020 3635 0
3634 3635 0
-1664 3635 0
1900 3635 0
-1020 3636 0
3634 3636 0
1664 3636 0
-1900 3636 0
1020 3637 0
-3634 3637 0
-1664 3637 0
1900 3637 0
1020 3638 0
-3634 3638 0
1664 3638 0
-1900 3638 0
1020 -3634 -3633 -3635 -3636 -3637 -3638 0
-1020 3634 -3633 -3635 -3636 -3637 -3638 0
-1664 -3633 -3635 -3636 -3637 -3638 0
-1900 -3633 -3635 -3636 -3637 -3638 0
-1021 3639 0
-3640 3639 0
1665 3639 0
1901 3639 0
-1021 3641 0
3640 3641 0
-1665 3641 0
1901 3641 0
-1021 3642 0
3640 3642 0
1665 3642 0
-1901 3642 0
1021 3643 0
-3640 3643 0
-1665 3643 0
1901 3643 0
1021 3644 0
-3640 3644 0
1665 3644 0
-1901 3644 0
1021 -3640 -3639 -3641 -3642 -3643 -3644 0
-1021 3640 -3639 -3641 -3642 -3643 -3644 0
-1665 -3639 -3641 -3642 -3643 -3644 0
-1901 -3639 -3641 -3642 -3643 -3644 0
-541 3645 0
-550 3645 0
541 550 -3645 0
3646 -3645 0
-3646 3645 0
-542 3647 0
-551 3647 0
-3646 3647 0
542 551 3646 -3647 0
3648 -3647 0
3647 -3648 0
-542 -3646 0
-551 -3646 0
3584 -3649 0
-3584 3649 0
3650 -3590 0
3590 -3650 0
3651 -3596 0
3596 -3651 0
-786 3652 0
-795 3652 0
786 795 -3652 0
3653 -3652 0
-3653 3652 0
-787 3654 0
-796 3654 0
-3653 3654 0
787 796 3653 -3654 0
3655 -3654 0
3654 -3655 0
-787 -3653 0
-796 -3653 0
3656 -3607 0
3607 -3656 0
3657 -3616 0
3658 -3619 0
3619 -3658 0
-1029 3659 0
-1038 3659 0
1029 1038 -3659 0
3660 -3659 0
-3660 3659 0
-1030 3661 0
-1039 3661 0
-3660 3661 0
1030 1039 3660 -3661 0
3662 -3661 0
3661 -3662 0
-1030 -3660 0
-1039 -3660 0
3663 -3629 0
3629 -3663 0
3664 -3634 0
3634 -3664 0
3665 -3640 0
3640 -3665 0
-550 3666 0
-559 3666 0
550 559 -3666 0
3667 -3666 0
-3667 3666 0
-551 3668 0
-560 3668 0
-3667 3668 0
551 560 3667 -3668 0
3669 -3668 0
3668 -3669 0
-551 -3667 0
-560 -3667 0
3670 -3649 0
3649 -3670 0
3671 -3650 0
3650 -3671 0
3672 -3651 0
3651 -3672 0
-795 3673 0
-804 3673 0
795 804 -3673 0
3674 -3673 0
-3674 3673 0
-796 3675 0
-805 3675 0
-3674 3675 0
796 805 3674 -3675 0
3676 -3675 0
3675 -3676 0
-796 -3674 0
-805 -3674 0
3677 -3656 0
3656 -3677 0
3678 -3657 0
3679 -3658 0
3658 -3679 0
-1038 3680 0
-1047 3680 0
1038 1047 -3680 0
3681 -3680 0
-3681 3680 0
-1039 3682 0
-1048 3682 0
-3681 3682 0
1039 1048 3681 -3682 0
3683 -3682 0
3682 -3683 0
-1039 -3681 0
-1048 -3681 0
3684 -3663 0
3663 -3684 0
3685 -3664 0
3664 -3685 0
3686 -3665 0
3665 -3686 0
-559 3687 0
-568 3687 0
559 568 -3687 0
3688 -3687 0
-3688 3687 0
-560 3689 0
-570 3689 0
-3688 3689 0
560 570 3688 -3689 0
3690 -3689 0
3689 -3690 0
-560 -3688 0
-570 -3688 0
569 -3670 0
3670 -569 0
571 -3671 0
3671 -571 0
572 -3672 0
3672 -572 0
-804 3691 0
-813 3691 0
804 813 -3691 0
3692 -3691 0
-3692 3691 0
-805 3693 0
-814 3693 0
-3692 3693 0
805 814 3692 -3693 0
3694 -3693 0
3693 -3694 0
-805 -3692 0
-814 -3692 0
3695 -3677 0
3677 -3695 0
3696 -3678 0
3697 -3679 0
3679 -3697 0
-1047 3698 0
-1056 3698 0
1047 1056 -3698 0
3699 -3698 0
-3699 3698 0
-1048 3700 0
-1058 3700 0
-3699 3700 0
1048 1058 3699 -3700 0
3701 -3700 0
3700 -3701 0
-1048 -3699 0
-1058 -3699 0
1057 -3684 0
3684 -1057 0
1059 -3685 0
3685 -1059 0
1060 -3686 0
3686 -1060 0
-568 3702 0
-580 3702 0
-1673 3702 0
-1909 3702 0
568 580 1673 1909 -3702 0
3703 -3702 0
-3703 3702 0
-570 3704 0
-581 3704 0
-3703 3704 0
570 581 1675 1911 3703 -3704 0
3705 -3704 0
3704 -3705 0
-570 -3703 0
-581 -3703 0
-1675 -3703 0
-1911 -3703 0
-569 3706 0
1674 3706 0
1910 3706 0
3707 3708 0
3707 3709 0
569 3710 0
-1674 3710 0
1910 3710 0
569 3711 0
1674 3711 0
-1910 3711 0
-569 3707 -3706 -3708 -3709 -3710 -3711 0
-1674 -3706 -3708 -3709 -3710 -3711 0
-1910 -3706 -3708 -3709 -3710 -3711 0
-571 3712 0
1676 3712 0
1912 3712 0
3713 3714 0
3713 3715 0
571 3716 0
-1676 3716 0
1912 3716 0
571 3717 0
1676 3717 0
-1912 3717 0
-571 3713 -3712 -3714 -3715 -3716 -3717 0
-1676 -3712 -3714 -3715 -3716 -3717 0
-1912 -3712 -3714 -3715 -3716 -3717 0
-572 3718 0
1677 3718 0
1913 3718 0
3719 3720 0
3719 3721 0
572 3722 0
-1677 3722 0
1913 3722 0
572 3723 0
1677 3723 0
-1913 3723 0
-572 3719 -3718 -3720 -3721 -3722 -3723 0
-1677 -3718 -3720 -3721 -3722 -3723 0
-1913 -3718 -3720 -3721 -3722 -3723 0
-813 3724 0
-822 3724 0
-1685 3724 0
813 822 1685 -3724 0
3725 -3724 0
-3725 3724 0
-814 3726 0
-823 3726 0
-3725 3726 0
814 823 1687 3725 -3726 0
3727 -3726 0
3726 -3727 0
-814 -3725 0
-823 -3725 0
-1687 -3725 0
1921 3728 0
1921 3729 0
3730 3731 0
1921 3732 0
3695 3733 0
1686 3733 0
-3695 3730 -3728 -3729 -3731 -3732 -3733 0
-1686 -3728 -3729 -3731 -3732 -3733 0
1922 3734 0
1922 3735 0
1688 3736 0
1922 3737 0
1688 3738 0
-3696 3739 -3734 -3735 -3736 -3737 -3738 0
1923 3740 0
1923 3741 0
3742 3743 0
1923 3744 0
3697 3745 0
1689 3745 0
-3697 3742 -3740 -3741 -3743 -3744 -3745 0
-1689 -3740 -3741 -3743 -3744 -3745 0
-1056 3746 0
-1068 3746 0
-1697 3746 0
-1932 3746 0
1056 1068 1697 1932 -3746 0
3747 -3746 0
-3747 3746 0
-1058 3748 0
-1069 3748 0
-3747 3748 0
1058 1069 1699 1934 3747 -3748 0
3749 -3748 0
3748 -3749 0
-1058 -3747 0
-1069 -3747 0
-1699 -3747 0
-1934 -3747 0
-1057 3750 0
1698 3750 0
1933 3750 0
3751 3752 0
3751 3753 0
1057 3754 0
-1698 3754 0
1933 3754 0
1057 3755 0
1698 3755 0
-1933 3755 0
-1057 3751 -3750 -3752 -3753 -3754 -3755 0
-1698 -3750 -3752 -3753 -3754 -3755 0
-1933 -3750 -3752 -3753 -3754 -3755 0
-1059 3756 0
1700 3756 0
1935 3756 0
3757 3758 0
3757 3759 0
1059 3760 0
-1700 3760 0
1935 3760 0
1059 3761 0
1700 3761 0
-1935 3761 0
-1059 3757 -3756 -3758 -3759 -3760 -3761 0
-1700 -3756 -3758 -3759 -3760 -3761 0
-1935 -3756 -3758 -3759 -3760 -3761 0
-1060 3762 0
1701 3762 0
1936 3762 0
3763 3764 0
3763 3765 0
1060 3766 0
-1701 3766 0
1936 3766 0
1060 3767 0
1701 3767 0
-1936 3767 0
-1060 3763 -3762 -3764 -3765 -3766 -3767 0
-1701 -3762 -3764 -3765 -3766 -3767 0
-1936 -3762 -3764 -3765 -3766 -3767 0
-580 3768 0
-589 3768 0
580 589 -3768 0
3769 -3768 0
-3769 3768 0
-581 3770 0
-590 3770 0
-3769 3770 0
581 590 3769 -3770 0
3771 -3770 0
3770 -3771 0
-581 -3769 0
-590 -3769 0
-3707 3772 0
3773 -3713 0
3774 -3719 0
-822 3775 0
-831 3775 0
822 831 -3775 0
3776 -3775 0
-3776 3775 0
-823 3777 0
-832 3777 0
-3776 3777 0
823 832 3776 -3777 0
3778 -3777 0
3777 -3778 0
-823 -3776 0
-832 -3776 0
3779 -3730 0
3780 -3739 0
3781 -3742 0
-1068 3782 0
-1077 3782 0
1068 1077 -3782 0
3783 -3782 0
-3783 3782 0
-1069 3784 0
-1078 3784 0
-3783 3784 0
1069 1078 3783 -3784 0
3785 -3784 0
3784 -3785 0
-1069 -3783 0
-1078 -3783 0
3786 -3751 0
3787 -3757 0
3788 -3763 0
-589 3789 0
-598 3789 0
589 598 -3789 0
3790 -3789 0
-3790 3789 0
-590 3791 0
-599 3791 0
-3790 3791 0
590 599 3790 -3791 0
3792 -3791 0
3791 -3792 0
-590 -3790 0
-599 -3790 0
3793 -3772 0
3794 -3773 0
3795 -3774 0
-831 3796 0
-840 3796 0
831 840 -3796 0
3797 -3796 0
-3797 3796 0
-832 3798 0
-841 3798 0
-3797 3798 0
832 841 3797 -3798 0
3799 -3798 0
3798 -3799 0
-832 -3797 0
-841 -3797 0
3800 -3779 0
3801 -3780 0
3802 -3781 0
-1077 3803 0
-1086 3803 0
1077 1086 -3803 0
3804 -3803 0
-3804 3803 0
-1078 3805 0
-1087 3805 0
-3804 3805 0
1078 1087 3804 -3805 0
3806 -3805 0
3805 -3806 0
-1078 -3804 0
-1087 -3804 0
3807 -3786 0
3808 -3787 0
3809 -3788 0
-598 3810 0
-607 3810 0
598 607 -3810 0
3811 -3810 0
-3811 3810 0
-599 3812 0
-608 3812 0
-3811 3812 0
599 608 3811 -3812 0
3813 -3812 0
3812 -3813 0
-599 -3811 0
-608 -3811 0
3814 -3793 0
3815 -3794 0
3816 -3795 0
-840 3817 0
-849 3817 0
840 849 -3817 0
3818 -3817 0
-3818 3817 0
-841 3819 0
-850 3819 0
-3818 3819 0
841 850 3818 -3819 0
3820 -3819 0
3819 -3820 0
-841 -3818 0
-850 -3818 0
3821 -3800 0
3822 -3801 0
3823 -3802 0
-1086 3824 0
-1095 3824 0
1086 1095 -3824 0
3825 -3824 0
-3825 3824 0
-1087 3826 0
-1096 3826 0
-3825 3826 0
1087 1096 3825 -3826 0
3827 -3826 0
3826 -3827 0
-1087 -3825 0
-1096 -3825 0
3828 -3807 0
3829 -3808 0
3830 -3809 0
-607 3831 0
-616 3831 0
607 616 -3831 0
3832 -3831 0
-3832 3831 0
-608 3833 0
-3832 3833 0
608 617 3832 -3833 0
3834 -3833 0
3833 -3834 0
-608 -3832 0
-617 -3832 0
2992 3835 0
3836 0
3837 0
2992 3838 0
3839 3840 0
-3814 -3835 -3838 -3840 0
2999 3841 0
3842 0
3843 0
2999 3844 0
3845 3846 0
-3815 -3841 -3844 -3846 0
3006 3847 0
3848 0
3849 0
3006 3850 0
3851 3852 0
-3816 -3847 -3850 -3852 0
-849 3853 0
-858 3853 0
849 858 -3853 0
3854 -3853 0
-3854 3853 0
-850 3855 0
-3854 3855 0
850 859 3854 -3855 0
3856 -3855 0
3855 -3856 0
-850 -3854 0
-859 -3854 0
1952 3857 0
3858 0
3859 0
1952 3860 0
1717 3861 0
-3821 -3857 -3860 -3861 0
1953 3862 0
3863 0
3864 0
1953 3865 0
1718 3866 0
-3822 -3862 -3865 -3866 0
1954 3867 0
3868 0
3869 0
1954 3870 0
1719 3871 0
-3823 -3867 -3870 -3871 0
-1095 3872 0
-1104 3872 0
1095 1104 -3872 0
3873 -3872 0
-3873 3872 0
-1096 3874 0
-3873 3874 0
1096 1105 3873 -3874 0
3875 -3874 0
3874 -3875 0
-1096 -3873 0
-1105 -3873 0
1963 3876 0
3877 0
3878 0
1963 3879 0
1728 3880 0
-3828 -3876 -3879 -3880 0
1964 3881 0
3882 0
3883 0
1964 3884 0
1729 3885 0
-3829 -3881 -3884 -3885 0
1965 3886 0
3887 0
3888 0
1965 3889 0
1730 3890 0
-3830 -3886 -3889 -3890 0
3891 -616 0
616 -3891 0
-617 3892 0
-3891 3892 0
617 3891 -3892 0
3893 -3892 0
3892 -3893 0
-3894 0
-3895 0
-3896 0
3897 -858 0
858 -3897 0
-859 3898 0
-3897 3898 0
859 3897 -3898 0
3899 -3898 0
3898 -3899 0
-3900 0
-3901 0
-3902 0
3903 -1104 0
1104 -3903 0
-1105 3904 0
-3903 3904 0
1105 3903 -3904 0
3905 -3904 0
3904 -3905 0
-3906 0
-3907 0
-3908 0
-3909 0
-3910 0
-3911 0
-3912 0
-3913 0
-3914 0
-3915 0
-3916 0
-3917 0
-3918 0
2222 3919 0
2222 3920 0
3921 3922 0
3923 0
3924 0
-3092 -3919 -3920 -3922 0
3925 0
3926 0
3927 3928 0
3929 0
3930 0
-3099 -3928 0
2223 3931 0
2223 3932 0
3933 3934 0
3935 0
3936 0
-3106 -3931 -3932 -3934 0
-3937 0
-3938 0
-3939 0
-3940 0
-3921 3941 0
3942 -3927 0
3943 -3933 0
-3944 0
-3945 0
-3946 0
-3947 0
2297 3948 0
2297 3949 0
1507 3950 0
2297 3951 0
1507 3952 0
-3941 3953 -3948 -3949 -3950 -3951 -3952 0
3954 0
3955 0
1508 3956 0
3957 0
1508 3958 0
-3942 3959 -3956 -3958 0
2298 3960 0
2298 3961 0
1509 3962 0
2298 3963 0
1509 3964 0
-3943 3965 -3960 -3961 -3962 -3963 -3964 0
-3966 0
-3967 0
-3968 0
-3969 0
-3953 3970 0
3971 -3959 0
3972 -3965 0
-3973 0
-3974 0
-3975 0
-3976 0
2372 3977 0
3978 0
3979 0
2372 3980 0
1518 3981 0
-3970 -3977 -3980 -3981 0
3982 0
3983 0
3984 0
3985 0
1519 3986 0
-3971 -3986 0
2373 3987 0
3988 0
3989 0
2373 3990 0
1520 3991 0
-3972 -3987 -3990 -3991 0
-3992 0
-3993 0
-3994 0
-3995 0
-3996 0
-3997 0
3998 -1161 0
1161 -3998 0
-1162 3999 0
-3998 3999 0
1162 3998 -3999 0
4000 -3999 0
3999 -4000 0
-4001 0
-4002 0
-4003 0
-1161 4004 0
-1170 4004 0
-1529 4004 0
-2232 4004 0
1161 1170 1529 2232 -4004 0
4005 -4004 0
-4005 4004 0
-1172 4006 0
-2234 4006 0
-4005 4006 0
1162 1172 1531 2234 4005 -4006 0
4007 -4006 0
4006 -4007 0
-1162 -4005 0
-1172 -4005 0
-1531 -4005 0
-2234 -4005 0
-1171 4008 0
1530 4008 0
2233 4008 0
1171 4009 0
-1530 4009 0
2233 4009 0
1171 4010 0
1530 4010 0
-2233 4010 0
4011 0
4012 0
-1171 -4008 -4009 -4010 0
-1530 -4008 -4009 -4010 0
-2233 -4008 -4009 -4010 0
4013 0
4014 0
4015 4016 0
1532 4016 0
4017 0
4018 0
-4015 -4016 0
-1532 -4016 0
-1173 4019 0
1533 4019 0
2235 4019 0
1173 4020 0
-1533 4020 0
2235 4020 0
1173 4021 0
1533 4021 0
-2235 4021 0
4022 0
4023 0
-1173 -4019 -4020 -4021 0
-1533 -4019 -4020 -4021 0
-2235 -4019 -4020 -4021 0
-1170 4024 0
-1181 4024 0
1170 1181 -4024 0
4025 -4024 0
-4025 4024 0
-1182 4026 0
-4025 4026 0
1172 1182 4025 -4026 0
4027 -4026 0
4026 -4027 0
-1172 -4025 0
-1182 -4025 0
1171 -4028 0
-1171 4028 0
4029 -4015 0
4015 -4029 0
4030 -1173 0
1173 -4030 0
-1181 4031 0
-1190 4031 0
-1541 4031 0
-2307 4031 0
1181 1190 1541 2307 -4031 0
4032 -4031 0
-4032 4031 0
-1182 4033 0
-1191 4033 0
-2309 4033 0
-4032 4033 0
1182 1191 1543 2309 4032 -4033 0
4034 -4033 0
4033 -4034 0
-1182 -4032 0
-1191 -4032 0
-1543 -4032 0
-2309 -4032 0
1542 4035 0
2308 4035 0
-4028 4036 0
4037 4036 0
2308 4036 0
4037 4038 0
1542 4038 0
4028 4039 0
-4037 4039 0
2308 4039 0
4028 4040 0
1542 4040 0
4028 -4037 -4035 -4036 -4038 -4039 -4040 0
-4028 4037 -4035 -4036 -4038 -4039 -4040 0
-1542 -4035 -4036 -4038 -4039 -4040 0
-2308 -4035 -4036 -4038 -4039 -4040 0
4041 0
4042 0
4043 4044 0
1544 4044 0
4045 0
4029 4046 0
1544 4046 0
4029 -4043 -4044 -4046 0
-4029 4043 -4044 -4046 0
-1544 -4044 -4046 0
1545 4047 0
2310 4047 0
-4030 4048 0
4049 4048 0
2310 4048 0
4049 4050 0
1545 4050 0
4030 4051 0
-4049 4051 0
2310 4051 0
4030 4052 0
1545 4052 0
4030 -4049 -4047 -4048 -4050 -4051 -4052 0
-4030 4049 -4047 -4048 -4050 -4051 -4052 0
-1545 -4047 -4048 -4050 -4051 -4052 0
-2310 -4047 -4048 -4050 -4051 -4052 0
-1190 4053 0
-1199 4053 0
1190 1199 -4053 0
4054 -4053 0
-4054 4053 0
-1191 4055 0
-4054 4055 0
1191 1201 4054 -4055 0
4056 -4055 0
4055 -4056 0
-1191 -4054 0
-1201 -4054 0
4037 -1200 0
-4037 1200 0
4057 -4043 0
4043 -4057 0
1202 -4049 0
4049 -1202 0
-1199 4058 0
-1210 4058 0
-1553 4058 0
-2382 4058 0
1199 1210 1553 2382 -4058 0
4059 -4058 0
-4059 4058 0
-1201 4060 0
-2384 4060 0
-4059 4060 0
1201 1211 1555 2384 4059 -4060 0
4061 -4060 0
4060 -4061 0
-1201 -4059 0
-1211 -4059 0
-1555 -4059 0
-2384 -4059 0
-1200 4062 0
1554 4062 0
2383 4062 0
4063 0
4064 0
1200 4065 0
-1554 4065 0
2383 4065 0
1200 4066 0
1554 4066 0
-2383 4066 0
-1200 -4062 -4065 -4066 0
-1554 -4062 -4065 -4066 0
-2383 -4062 -4065 -4066 0
4067 0
4068 0
4069 0
4070 0
4057 4071 0
1556 4071 0
-4057 -4071 0
-1556 -4071 0
-1202 4072 0
1557 4072 0
2385 4072 0
4073 0
4074 0
1202 4075 0
-1557 4075 0
2385 4075 0
1202 4076 0
1557 4076 0
-2385 4076 0
-1202 -4072 -4075 -4076 0
-1557 -4072 -4075 -4076 0
-2385 -4072 -4075 -4076 0
4077 -1210 0
1210 -4077 0
-1211 4078 0
-4077 4078 0
1211 4077 -4078 0
4079 -4078 0
4078 -4079 0
-4080 0
-4081 0
-4082 0
4083 -1219 0
1219 -4083 0
-1220 4084 0
-4083 4084 0
1220 4083 -4084 0
4085 -4084 0
4084 -4085 0
-4086 0
-4087 0
-4088 0
-1219 4089 0
-1228 4089 0
-1565 4089 0
-2243 4089 0
1219 1228 1565 2243 -4089 0
4090 -4089 0
-4090 4089 0
-1230 4091 0
-2245 4091 0
-4090 4091 0
1220 1230 1567 2245 4090 -4091 0
4092 -4091 0
4091 -4092 0
-1220 -4090 0
-1230 -4090 0
-1567 -4090 0
-2245 -4090 0
-1229 4093 0
1566 4093 0
2244 4093 0
1229 4094 0
-1566 4094 0
2244 4094 0
1229 4095 0
1566 4095 0
-2244 4095 0
4096 0
4097 0
-1229 -4093 -4094 -4095 0
-1566 -4093 -4094 -4095 0
-2244 -4093 -4094 -4095 0
4098 0
4099 0
4100 4101 0
1568 4101 0
4102 0
4103 0
-4100 -4101 0
-1568 -4101 0
-1231 4104 0
1569 4104 0
2246 4104 0
1231 4105 0
-1569 4105 0
2246 4105 0
1231 4106 0
1569 4106 0
-2246 4106 0
4107 0
4108 0
-1231 -4104 -4105 -4106 0
-1569 -4104 -4105 -4106 0
-2246 -4104 -4105 -4106 0
-1228 4109 0
-1239 4109 0
1228 1239 -4109 0
4110 -4109 0
-4110 4109 0
-1240 4111 0
-4110 4111 0
1230 1240 4110 -4111 0
4112 -4111 0
4111 -4112 0
-1230 -4110 0
-1240 -4110 0
1229 -4113 0
-1229 4113 0
4114 -4100 0
4100 -4114 0
4115 -1231 0
1231 -4115 0
-1239 4116 0
-1248 4116 0
-1577 4116 0
-2318 4116 0
1239 1248 1577 2318 -4116 0
4117 -4116 0
-4117 4116 0
-1240 4118 0
-1249 4118 0
-2320 4118 0
-4117 4118 0
1240 1249 1579 2320 4117 -4118 0
4119 -4118 0
4118 -4119 0
-1240 -4117 0
-1249 -4117 0
-1579 -4117 0
-2320 -4117 0
1578 4120 0
2319 4120 0
-4113 4121 0
4122 4121 0
2319 4121 0
4122 4123 0
1578 4123 0
4113 4124 0
-4122 4124 0
2319 4124 0
4113 4125 0
1578 4125 0
4113 -4122 -4120 -4121 -4123 -4124 -4125 0
-4113 4122 -4120 -4121 -4123 -4124 -4125 0
-1578 -4120 -4121 -4123 -4124 -4125 0
-2319 -4120 -4121 -4123 -4124 -4125 0
4126 0
4127 0
4128 4129 0
1580 4129 0
4130 0
4114 4131 0
1580 4131 0
4114 -4128 -4129 -4131 0
-4114 4128 -4129 -4131 0
-1580 -4129 -4131 0
1581 4132 0
2321 4132 0
-4115 4133 0
4134 4133 0
2321 4133 0
4134 4135 0
1581 4135 0
4115 4136 0
-4134 4136 0
2321 4136 0
4115 4137 0
1581 4137 0
4115 -4134 -4132 -4133 -4135 -4136 -4137 0
-4115 4134 -4132 -4133 -4135 -4136 -4137 0
-1581 -4132 -4133 -4135 -4136 -4137 0
-2321 -4132 -4133 -4135 -4136 -4137 0
-1248 4138 0
-1257 4138 0
1248 1257 -4138 0
4139 -4138 0
-4139 4138 0
-1249 4140 0
-4139 4140 0
1249 1259 4139 -4140 0
4141 -4140 0
4140 -4141 0
-1249 -4139 0
-1259 -4139 0
4122 -1258 0
-4122 1258 0
4142 -4128 0
4128 -4142 0
1260 -4134 0
4134 -1260 0
-1257 4143 0
-1268 4143 0
-1589 4143 0
-2393 4143 0
1257 1268 1589 2393 -4143 0
4144 -4143 0
-4144 4143 0
-1259 4145 0
-2395 4145 0
-4144 4145 0
1259 1269 1591 2395 4144 -4145 0
4146 -4145 0
4145 -4146 0
-1259 -4144 0
-1269 -4144 0
-1591 -4144 0
-2395 -4144 0
-1258 4147 0
1590 4147 0
2394 4147 0
4148 0
4149 0
1258 4150 0
-1590 4150 0
2394 4150 0
1258 4151 0
1590 4151 0
-2394 4151 0
-1258 -4147 -4150 -4151 0
-1590 -4147 -4150 -4151 0
-2394 -4147 -4150 -4151 0
4152 0
4153 0
4154 0
4155 0
4142 4156 0
1592 4156 0
-4142 -4156 0
-1592 -4156 0
-1260 4157 0
1593 4157 0
2396 4157 0
4158 0
4159 0
1260 4160 0
-1593 4160 0
2396 4160 0
1260 4161 0
1593 4161 0
-2396 4161 0
-1260 -4157 -4160 -4161 0
-1593 -4157 -4160 -4161 0
-2396 -4157 -4160 -4161 0
4162 -1268 0
1268 -4162 0
-1269 4163 0
-4162 4163 0
1269 4162 -4163 0
4164 -4163 0
4163 -4164 0
-4165 0
-4166 0
-4167 0
4168 -1277 0
1277 -4168 0
-1278 4169 0
-4168 4169 0
1278 4168 -4169 0
4170 -4169 0
4169 -4170 0
-4171 0
-4172 0
-4173 0
-1277 4174 0
-1286 4174 0
-1601 4174 0
-2254 4174 0
1277 1286 1601 2254 -4174 0
4175 -4174 0
-4175 4174 0
-1288 4176 0
-2256 4176 0
-4175 4176 0
1278 1288 1603 2256 4175 -4176 0
4177 -4176 0
4176 -4177 0
-1278 -4175 0
-1288 -4175 0
-1603 -4175 0
-2256 -4175 0
-1287 4178 0
1602 4178 0
2255 4178 0
1287 4179 0
-1602 4179 0
2255 4179 0
1287 4180 0
1602 4180 0
-2255 4180 0
4181 0
4182 0
-1287 -4178 -4179 -4180 0
-1602 -4178 -4179 -4180 0
-2255 -4178 -4179 -4180 0
4183 0
4184 0
4185 4186 0
1604 4186 0
4187 0
4188 0
-4185 -4186 0
-1604 -4186 0
-1289 4189 0
1605 4189 0
2257 4189 0
1289 4190 0
-1605 4190 0
2257 4190 0
1289 4191 0
1605 4191 0
-2257 4191 0
4192 0
4193 0
-1289 -4189 -4190 -4191 0
-1605 -4189 -4190 -4191 0
-2257 -4189 -4190 -4191 0
-1286 4194 0
-1297 4194 0
1286 1297 -4194 0
4195 -4194 0
-4195 4194 0
-1298 4196 0
-4195 4196 0
1288 1298 4195 -4196 0
4197 -4196 0
4196 -4197 0
-1288 -4195 0
-1298 -4195 0
1287 -4198 0
-1287 4198 0
4199 -4185 0
4185 -4199 0
4200 -1289 0
1289 -4200 0
-1297 4201 0
-1306 4201 0
-1613 4201 0
-2329 4201 0
1297 1306 1613 2329 -4201 0
4202 -4201 0
-4202 4201 0
-1298 4203 0
-1307 4203 0
-2331 4203 0
-4202 4203 0
1298 1307 1615 2331 4202 -4203 0
4204 -4203 0
4203 -4204 0
-1298 -4202 0
-1307 -4202 0
-1615 -4202 0
-2331 -4202 0
1614 4205 0
2330 4205 0
-4198 4206 0
4207 4206 0
2330 4206 0
4207 4208 0
1614 4208 0
4198 4209 0
-4207 4209 0
2330 4209 0
4198 4210 0
1614 4210 0
4198 -4207 -4205 -4206 -4208 -4209 -4210 0
-4198 4207 -4205 -4206 -4208 -4209 -4210 0
-1614 -4205 -4206 -4208 -4209 -4210 0
-2330 -4205 -4206 -4208 -4209 -4210 0
4211 0
4212 0
4213 4214 0
1616 4214 0
4215 0
4199 4216 0
1616 4216 0
4199 -4213 -4214 -4216 0
-4199 4213 -4214 -4216 0
-1616 -4214 -4216 0
1617 4217 0
2332 4217 0
-4200 4218 0
4219 4218 0
2332 4218 0
4219 4220 0
1617 4220 0
4200 4221 0
-4219 4221 0
2332 4221 0
4200 4222 0
1617 4222 0
4200 -4219 -4217 -4218 -4220 -4221 -4222 0
-4200 4219 -4217 -4218 -4220 -4221 -4222 0
-1617 -4217 -4218 -4220 -4221 -4222 0
-2332 -4217 -4218 -4220 -4221 -4222 0
-1306 4223 0
-1315 4223 0
1306 1315 -4223 0
4224 -4223 0
-4224 4223 0
-1307 4225 0
-4224 4225 0
1307 1317 4224 -4225 0
4226 -4225 0
4225 -4226 0
-1307 -4224 0
-1317 -4224 0
4207 -1316 0
-4207 1316 0
4227 -4213 0
4213 -4227 0
1318 -4219 0
4219 -1318 0
-1315 4228 0
-1326 4228 0
-1625 4228 0
-2404 4228 0
1315 1326 1625 2404 -4228 0
4229 -4228 0
-4229 4228 0
-1317 4230 0
-2406 4230 0
-4229 4230 0
1317 1327 1627 2406 4229 -4230 0
4231 -4230 0
4230 -4231 0
-1317 -4229 0
-1327 -4229 0
-1627 -4229 0
-2406 -4229 0
-1316 4232 0
1626 4232 0
2405 4232 0
4233 0
4234 0
1316 4235 0
-1626 4235 0
2405 4235 0
1316 4236 0
1626 4236 0
-2405 4236 0
-1316 -4232 -4235 -4236 0
-1626 -4232 -4235 -4236 0
-2405 -4232 -4235 -4236 0
4237 0
4238 0
4239 0
4240 0
4227 4241 0
1628 4241 0
-4227 -4241 0
-1628 -4241 0
-1318 4242 0
1629 4242 0
2407 4242 0
4243 0
4244 0
1318 4245 0
-1629 4245 0
2407 4245 0
1318 4246 0
1629 4246 0
-2407 4246 0
-1318 -4242 -4245 -4246 0
-1629 -4242 -4245 -4246 0
-2407 -4242 -4245 -4246 0
4247 -1326 0
1326 -4247 0
-1327 4248 0
-4247 4248 0
1327 4247 -4248 0
4249 -4248 0
4248 -4249 0
-4250 0
-4251 0
-4252 0
4253 -1335 0
1335 -4253 0
-1336 4254 0
-4253 4254 0
1336 4253 -4254 0
4255 -4254 0
4254 -4255 0
-4256 0
-4257 0
-4258 0
-1335 4259 0
-1344 4259 0
-1637 4259 0
-2265 4259 0
1335 1344 1637 2265 -4259 0
4260 -4259 0
-4260 4259 0
-1346 4261 0
-2267 4261 0
-4260 4261 0
1336 1346 1639 2267 4260 -4261 0
4262 -4261 0
4261 -4262 0
-1336 -4260 0
-1346 -4260 0
-1639 -4260 0
-2267 -4260 0
-1345 4263 0
1638 4263 0
2266 4263 0
1345 4264 0
-1638 4264 0
2266 4264 0
1345 4265 0
1638 4265 0
-2266 4265 0
4266 0
4267 0
-1345 -4263 -4264 -4265 0
-1638 -4263 -4264 -4265 0
-2266 -4263 -4264 -4265 0
4268 0
4269 0
4270 4271 0
1640 4271 0
4272 0
4273 0
-4270 -4271 0
-1640 -4271 0
-1347 4274 0
1641 4274 0
2268 4274 0
1347 4275 0
-1641 4275 0
2268 4275 0
1347 4276 0
1641 4276 0
-2268 4276 0
4277 0
4278 0
-1347 -4274 -4275 -4276 0
-1641 -4274 -4275 -4276 0
-2268 -4274 -4275 -4276 0
-1344 4279 0
-1355 4279 0
1344 1355 -4279 0
4280 -4279 0
-4280 4279 0
-1356 4281 0
-4280 4281 0
1346 1356 4280 -4281 0
4282 -4281 0
4281 -4282 0
-1346 -4280 0
-1356 -4280 0
1345 -4283 0
-1345 4283 0
4284 -4270 0
4270 -4284 0
4285 -1347 0
1347 -4285 0
-1355 4286 0
-1364 4286 0
-1649 4286 0
-2340 4286 0
1355 1364 1649 2340 -4286 0
4287 -4286 0
-4287 4286 0
-1356 4288 0
-1365 4288 0
-2342 4288 0
-4287 4288 0
1356 1365 1651 2342 4287 -4288 0
4289 -4288 0
4288 -4289 0
-1356 -4287 0
-1365 -4287 0
-1651 -4287 0
-2342 -4287 0
1650 4290 0
2341 4290 0
-4283 4291 0
4292 4291 0
2341 4291 0
4292 4293 0
1650 4293 0
4283 4294 0
-4292 4294 0
2341 4294 0
4283 4295 0
1650 4295 0
4283 -4292 -4290 -4291 -4293 -4294 -4295 0
-4283 4292 -4290 -4291 -4293 -4294 -4295 0
-1650 -4290 -4291 -4293 -4294 -4295 0
-2341 -4290 -4291 -4293 -4294 -4295 0
4296 0
4297 0
4298 4299 0
1652 4299 0
4300 0
4284 4301 0
1652 4301 0
4284 -4298 -4299 -4301 0
-4284 4298 -4299 -4301 0
-1652 -4299 -4301 0
1653 4302 0
2343 4302 0
-4285 4303 0
4304 4303 0
2343 4303 0
4304 4305 0
1653 4305 0
4285 4306 0
-4304 4306 0
2343 4306 0
4285 4307 0
1653 4307 0
4285 -4304 -4302 -4303 -4305 -4306 -4307 0
-4285 4304 -4302 -4303 -4305 -4306 -4307 0
-1653 -4302 -4303 -4305 -4306 -4307 0
-2343 -4302 -4303 -4305 -4306 -4307 0
-1364 4308 0
-1373 4308 0
1364 1373 -4308 0
4309 -4308 0
-4309 4308 0
-1365 4310 0
-4309 4310 0
1365 1375 4309 -4310 0
4311 -4310 0
4310 -4311 0
-1365 -4309 0
-1375 -4309 0
4292 -1374 0
-4292 1374 0
4312 -4298 0
4298 -4312 0
1376 -4304 0
4304 -1376 0
-1373 4313 0
-1384 4313 0
-1661 4313 0
-2415 4313 0
1373 1384 1661 2415 -4313 0
4314 -4313 0
-4314 4313 0
-1375 4315 0
-2417 4315 0
-4314 4315 0
1375 1385 1663 2417 4314 -4315 0
4316 -4315 0
4315 -4316 0
-1375 -4314 0
-1385 -4314 0
-1663 -4314 0
-2417 -4314 0
-1374 4317 0
1662 4317 0
2416 4317 0
4318 0
4319 0
1374 4320 0
-1662 4320 0
2416 4320 0
1374 4321 0
1662 4321 0
-2416 4321 0
-1374 -4317 -4320 -4321 0
-1662 -4317 -4320 -4321 0
-2416 -4317 -4320 -4321 0
4322 0
4323 0
4324 0
4325 0
4312 4326 0
1664 4326 0
-4312 -4326 0
-1664 -4326 0
-1376 4327 0
1665 4327 0
2418 4327 0
4328 0
4329 0
1376 4330 0
-1665 4330 0
2418 4330 0
1376 4331 0
1665 4331 0
-2418 4331 0
-1376 -4327 -4330 -4331 0
-1665 -4327 -4330 -4331 0
-2418 -4327 -4330 -4331 0
4332 -1384 0
1384 -4332 0
-1385 4333 0
-4332 4333 0
1385 4332 -4333 0
4334 -4333 0
4333 -4334 0
-4335 0
-4336 0
-4337 0
4338 -1393 0
1393 -4338 0
-1394 4339 0
-4338 4339 0
1394 4338 -4339 0
4340 -4339 0
4339 -4340 0
-4341 0
-4342 0
-4343 0
-1393 4344 0
-1402 4344 0
-1673 4344 0
-2276 4344 0
1393 1402 1673 2276 -4344 0
4345 -4344 0
-4345 4344 0
-1404 4346 0
-2278 4346 0
-4345 4346 0
1394 1404 1675 2278 4345 -4346 0
4347 -4346 0
4346 -4347 0
-1394 -4345 0
-1404 -4345 0
-1675 -4345 0
-2278 -4345 0
-1403 4348 0
1674 4348 0
2277 4348 0
1403 4349 0
-1674 4349 0
2277 4349 0
1403 4350 0
1674 4350 0
-2277 4350 0
4351 0
4352 0
-1403 -4348 -4349 -4350 0
-1674 -4348 -4349 -4350 0
-2277 -4348 -4349 -4350 0
4353 0
4354 0
4355 4356 0
1676 4356 0
4357 0
4358 0
-4355 -4356 0
-1676 -4356 0
-1405 4359 0
1677 4359 0
2279 4359 0
1405 4360 0
-1677 4360 0
2279 4360 0
1405 4361 0
1677 4361 0
-2279 4361 0
4362 0
4363 0
-1405 -4359 -4360 -4361 0
-1677 -4359 -4360 -4361 0
-2279 -4359 -4360 -4361 0
-1402 4364 0
-1413 4364 0
1402 1413 -4364 0
4365 -4364 0
-4365 4364 0
-1414 4366 0
-4365 4366 0
1404 1414 4365 -4366 0
4367 -4366 0
4366 -4367 0
-1404 -4365 0
-1414 -4365 0
1403 -4368 0
-1403 4368 0
4369 -4355 0
4355 -4369 0
4370 -1405 0
1405 -4370 0
-1413 4371 0
-1422 4371 0
-1685 4371 0
-2351 4371 0
1413 1422 1685 2351 -4371 0
4372 -4371 0
-4372 4371 0
-1414 4373 0
-1423 4373 0
-2353 4373 0
-4372 4373 0
1414 1423 1687 2353 4372 -4373 0
4374 -4373 0
4373 -4374 0
-1414 -4372 0
-1423 -4372 0
-1687 -4372 0
-2353 -4372 0
1686 4375 0
2352 4375 0
-4368 4376 0
4377 4376 0
2352 4376 0
4377 4378 0
1686 4378 0
4368 4379 0
-4377 4379 0
2352 4379 0
4368 4380 0
1686 4380 0
4368 -4377 -4375 -4376 -4378 -4379 -4380 0
-4368 4377 -4375 -4376 -4378 -4379 -4380 0
-1686 -4375 -4376 -4378 -4379 -4380 0
-2352 -4375 -4376 -4378 -4379 -4380 0
4381 0
4382 0
4383 4384 0
1688 4384 0
4385 0
4369 4386 0
1688 4386 0
4369 -4383 -4384 -4386 0
-4369 4383 -4384 -4386 0
-1688 -4384 -4386 0
1689 4387 0
2354 4387 0
-4370 4388 0
4389 4388 0
2354 4388 0
4389 4390 0
1689 4390 0
4370 4391 0
-4389 4391 0
2354 4391 0
4370 4392 0
1689 4392 0
4370 -4389 -4387 -4388 -4390 -4391 -4392 0
-4370 4389 -4387 -4388 -4390 -4391 -4392 0
-1689 -4387 -4388 -4390 -4391 -4392 0
-2354 -4387 -4388 -4390 -4391 -4392 0
-1422 4393 0
-1431 4393 0
1422 1431 -4393 0
4394 -4393 0
-4394 4393 0
-1423 4395 0
-4394 4395 0
1423 1433 4394 -4395 0
4396 -4395 0
4395 -4396 0
-1423 -4394 0
-1433 -4394 0
4377 -1432 0
-4377 1432 0
4397 -4383 0
4383 -4397 0
1434 -4389 0
4389 -1434 0
-1431 4398 0
-1442 4398 0
-1697 4398 0
-2426 4398 0
1431 1442 1697 2426 -4398 0
4399 -4398 0
-4399 4398 0
-1433 4400 0
-2428 4400 0
-4399 4400 0
1433 1443 1699 2428 4399 -4400 0
4401 -4400 0
4400 -4401 0
-1433 -4399 0
-1443 -4399 0
-1699 -4399 0
-2428 -4399 0
-1432 4402 0
1698 4402 0
2427 4402 0
4403 0
4404 0
1432 4405 0
-1698 4405 0
2427 4405 0
1432 4406 0
1698 4406 0
-2427 4406 0
-1432 -4402 -4405 -4406 0
-1698 -4402 -4405 -4406 0
-2427 -4402 -4405 -4406 0
4407 0
4408 0
4409 0
4410 0
4397 4411 0
1700 4411 0
-4397 -4411 0
-1700 -4411 0
-1434 4412 0
1701 4412 0
2429 4412 0
4413 0
4414 0
1434 4415 0
-1701 4415 0
2429 4415 0
1434 4416 0
1701 4416 0
-2429 4416 0
-1434 -4412 -4415 -4416 0
-1701 -4412 -4415 -4416 0
-2429 -4412 -4415 -4416 0
4417 -1442 0
1442 -4417 0
-1443 4418 0
-4417 4418 0
1443 4417 -4418 0
4419 -4418 0
4418 -4419 0
-4420 0
-4421 0
-4422 0
-4423 0
-4424 0
-4425 0
-4426 0
-4427 0
-4428 0
-4429 0
-4430 0
-4431 0
-4432 0
2287 4433 0
2287 4434 0
4435 4436 0
4437 0
4438 0
-3839 -4433 -4434 -4436 0
4439 0
4440 0
4441 4442 0
4443 0
4444 0
-3845 -4442 0
2288 4445 0
2288 4446 0
4447 4448 0
4449 0
4450 0
-3851 -4445 -4446 -4448 0
-4451 0
-4452 0
-4453 0
-4454 0
-4435 4455 0
4456 -4441 0
4457 -4447 0
-4458 0
-4459 0
-4460 0
-4461 0
2362 4462 0
2362 4463 0
1717 4464 0
2362 4465 0
1717 4466 0
-4455 4467 -4462 -4463 -4464 -4465 -4466 0
4468 0
4469 0
1718 4470 0
4471 0
1718 4472 0
-4456 4473 -4470 -4472 0
2363 4474 0
2363 4475 0
1719 4476 0
2363 4477 0
1719 4478 0
-4457 4479 -4474 -4475 -4476 -4477 -4478 0
-4480 0
-4481 0
-4482 0
-4483 0
-4467 4484 0
4485 -4473 0
4486 -4479 0
-4487 0
-4488 0
-4489 0
-4490 0
2437 4491 0
4492 0
4493 0
2437 4494 0
1728 4495 0
-4484 -4491 -4494 -4495 0
4496 0
4497 0
4498 0
4499 0
1729 4500 0
-4485 -4500 0
2438 4501 0
4502 0
4503 0
2438 4504 0
1730 4505 0
-4486 -4501 -4504 -4505 0
-4506 0
-4507 0
-4508 0
-4509 0
-4510 0
-4511 0
-2022 4512 0
-2056 4512 0
-2092 4512 0
-2128 4512 0
-2162 4512 0
4513 -4512 0
-4513 4514 0
4515 -4514 0
-2024 -4513 0
-2058 -4513 0
-2094 -4513 0
-2130 -4513 0
-2164 -4513 0
-2601 4516 0
-2068 4516 0
4517 -4516 0
-2034 4518 0
-2070 4518 0
4519 -4518 0
-2034 -4517 0
-2070 -4517 0
-2864 4520 0
-2174 4520 0
4521 -4520 0
-2140 4522 0
-2176 4522 0
4523 -4522 0
-2140 -4521 0
-2176 -4521 0
2023 2057 2093 2129 2163 0
4524 -2023 0
-2057 4525 0
-4524 4525 0
4526 -4525 0
-2057 -4524 0
-2093 4527 0
-4526 4527 0
4528 -4527 0
-2093 -4526 0
-2129 4529 0
-4528 4529 0
4530 -4529 0
-2129 -4528 0
-2163 4531 0
-4530 4531 0
4532 -4531 0
-2163 -4530 0
2165 4533 0
2165 4534 0
2131 4535 0
2165 4536 0
2131 4537 0
2095 4538 0
2165 4539 0
2131 4540 0
2095 4541 0
2166 4542 0
2166 4543 0
2132 4544 0
2166 4545 0
2132 4546 0
2096 4547 0
2166 4548 0
2132 4549 0
2096 4550 0
2069 -2605 0
2035 2071 0
4551 -2035 0
-2071 4552 0
-4551 4552 0
4553 -4552 0
-2071 -4551 0
2036 2072 0
4554 -2036 0
-2072 4555 0
-4554 4555 0
4556 -4555 0
-2072 -4554 0
2175 -2868 0
2141 2177 0
4557 -2141 0
-2177 4558 0
-4557 4558 0
4559 -4558 0
-2177 -4557 0
2178 -2142 0
2142 -2178 0
2222 2233 2244 2255 2266 2277 2287 2297 2308 2319 2330 2341 2352 2362 2372 2383 2394 2405 2416 2427 2437 0
-2233 4560 0
-4561 4560 0
4562 -4560 0
-2233 -4561 0
-2244 4563 0
-4562 4563 0
4564 -4563 0
-2244 -4562 0
-2255 4565 0
-4564 4565 0
4566 -4565 0
-2255 -4564 0
-2266 4567 0
-4566 4567 0
4568 -4567 0
-2266 -4566 0
-2277 4569 0
-4568 4569 0
4570 -4569 0
-2277 -4568 0
-4570 4571 0
4572 -4571 0
-4572 4573 0
4574 -4573 0
-2308 4575 0
-4574 4575 0
4576 -4575 0
-2308 -4574 0
-2319 4577 0
-4576 4577 0
4578 -4577 0
-2319 -4576 0
-2330 4579 0
-4578 4579 0
4580 -4579 0
-2330 -4578 0
-2341 4581 0
-4580 4581 0
4582 -4581 0
-2341 -4580 0
-2352 4583 0
-4582 4583 0
4584 -4583 0
-2352 -4582 0
-4584 4585 0
4586 -4585 0
-4586 4587 0
4588 -4587 0
-2383 4589 0
-4588 4589 0
4590 -4589 0
-2383 -4588 0
-2394 4591 0
-4590 4591 0
4592 -4591 0
-2394 -4590 0
-2405 4593 0
-4592 4593 0
4594 -4593 0
-2405 -4592 0
-2416 4595 0
-4594 4595 0
4596 -4595 0
-2416 -4594 0
-2427 4597 0
-4596 4597 0
4598 -4597 0
-2427 -4596 0
-4598 4599 0
4600 -4599 0
-4601 0
-4602 0
-4603 0
-4604 0
-4605 0
-4606 0
-4607 0
-4608 0
-4609 0
-4610 0
-4611 0
-4612 0
-4613 0
-4614 0
-4615 0
-4616 0
-4617 0
-4618 0
-4619 0
-4620 0
-4621 0
2223 2235 2246 2257 2268 2279 2288 2298 2310 2321 2332 2343 2354 2363 2373 2385 2396 2407 2418 2429 2438 0
-2235 4622 0
-4623 4622 0
4624 -4622 0
-2235 -4623 0
-2246 4625 0
-4624 4625 0
4626 -4625 0
-2246 -4624 0
-2257 4627 0
-4626 4627 0
4628 -4627 0
-2257 -4626 0
-2268 4629 0
-4628 4629 0
4630 -4629 0
-2268 -4628 0
-2279 4631 0
-4630 4631 0
4632 -4631 0
-2279 -4630 0
-4632 4633 0
4634 -4633 0
-4634 4635 0
4636 -4635 0
-2310 4637 0
-4636 4637 0
4638 -4637 0
-2310 -4636 0
-2321 4639 0
-4638 4639 0
4640 -4639 0
-2321 -4638 0
-2332 4641 0
-4640 4641 0
4642 -4641 0
-2332 -4640 0
-2343 4643 0
-4642 4643 0
4644 -4643 0
-2343 -4642 0
-2354 4645 0
-4644 4645 0
4646 -4645 0
-2354 -4644 0
-4646 4647 0
4648 -4647 0
-4648 4649 0
4650 -4649 0
-2385 4651 0
-4650 4651 0
4652 -4651 0
-2385 -4650 0
-2396 4653 0
-4652 4653 0
4654 -4653 0
-2396 -4652 0
-2407 4655 0
-4654 4655 0
4656 -4655 0
-2407 -4654 0
-2418 4657 0
-4656 4657 0
4658 -4657 0
-2418 -4656 0
-2429 4659 0
-4658 4659 0
4660 -4659 0
-2429 -4658 0
-4660 4661 0
4662 -4661 0
-4663 0
-4664 0
-4665 0
-4666 0
-4667 0
-4668 0
-4669 0
-4670 0
-4671 0
-4672 0
-4673 0
-4674 0
-4675 0
-4676 0
4677 -51 0
51 -4677 0
-4678 0
51 60 -4679 0
51 -60 4679 0
51 60 -4680 0
-51 60 4680 0
-60 -4681 0
60 69 -4681 0
60 -69 4681 0
60 69 -4682 0
-60 69 4682 0
-69 -4683 0
69 78 -4683 0
69 -78 4683 0
69 78 -4684 0
-78 -4684 0
-69 78 4684 0
78 90 -4685 0
78 -90 4685 0
78 90 -4686 0
-90 -4686 0
-78 90 4686 0
90 99 -4687 0
90 -99 4687 0
90 99 -4688 0
-99 -4688 0
-90 99 4688 0
-4689 0
4690 -99 0
99 -4690 0
4691 -108 0
108 -4691 0
-4692 0
108 117 -4693 0
108 -117 4693 0
108 117 -4694 0
-108 117 4694 0
-117 -4695 0
117 126 -4695 0
117 -126 4695 0
117 126 -4696 0
-117 126 4696 0
-126 -4697 0
126 135 -4697 0
126 -135 4697 0
126 135 -4698 0
-135 -4698 0
-126 135 4698 0
135 147 -4699 0
135 -147 4699 0
135 147 -4700 0
-147 -4700 0
-135 147 4700 0
147 156 -4701 0
147 -156 4701 0
147 156 -4702 0
-156 -4702 0
-147 156 4702 0
-4703 0
4704 -156 0
156 -4704 0
4705 -165 0
165 -4705 0
-4706 0
165 174 -4707 0
165 -174 4707 0
165 174 -4708 0
-165 174 4708 0
-174 -4709 0
174 183 -4709 0
174 -183 4709 0
174 183 -4710 0
-174 183 4710 0
-183 -4711 0
183 192 -4711 0
183 -192 4711 0
183 192 -4712 0
-192 -4712 0
-183 192 4712 0
192 201 -4713 0
192 -201 4713 0
192 201 -4714 0
-201 -4714 0
-192 201 4714 0
201 210 -4715 0
201 -210 4715 0
201 210 -4716 0
-210 -4716 0
-201 210 4716 0
-4717 0
4718 -210 0
210 -4718 0
4719 -219 0
219 -4719 0
-4720 0
219 228 -4721 0
219 -228 4721 0
219 228 -4722 0
-219 228 4722 0
-228 -4723 0
228 237 -4723 0
228 -237 4723 0
228 237 -4724 0
-228 237 4724 0
-237 -4725 0
237 246 -4725 0
237 -246 4725 0
237 246 -4726 0
-246 -4726 0
-237 246 4726 0
246 258 -4727 0
246 -258 4727 0
246 258 -4728 0
-258 -4728 0
-246 258 4728 0
258 267 -4729 0
258 -267 4729 0
258 267 -4730 0
-267 -4730 0
-258 267 4730 0
-4731 0
4732 -267 0
267 -4732 0
4733 -276 0
276 -4733 0
-4734 0
276 285 -4735 0
276 -285 4735 0
276 285 -4736 0
-276 285 4736 0
-285 -4737 0
285 294 -4737 0
285 -294 4737 0
285 294 -4738 0
-285 294 4738 0
-294 -4739 0
294 303 -4739 0
294 -303 4739 0
294 303 -4740 0
-303 -4740 0
-294 303 4740 0
303 315 -4741 0
303 -315 4741 0
303 315 -4742 0
-315 -4742 0
-303 315 4742 0
315 324 -4743 0
315 -324 4743 0
315 324 -4744 0
-324 -4744 0
-315 324 4744 0
-4745 0
4746 -324 0
324 -4746 0
-4747 0
-4748 0
-4749 0
-4750 0
-4751 0
-4752 0
-4753 0
-4754 0
-4755 0
-4756 0
-4757 0
-4758 0
-4759 0
-4760 0
4761 -381 0
381 -4761 0
-4762 0
381 390 -4763 0
381 -390 4763 0
381 390 -4764 0
-381 390 4764 0
-390 -4765 0
390 399 -4765 0
390 -399 4765 0
390 399 -4766 0
-399 -4766 0
-390 399 4766 0
-399 -4767 0
399 408 -4767 0
399 -408 4767 0
399 408 -4768 0
-408 -4768 0
-399 408 4768 0
-408 -4769 0
408 417 -4769 0
408 -417 4769 0
408 417 -4770 0
-417 -4770 0
-408 417 4770 0
-417 -4771 0
417 426 -4771 0
417 -426 4771 0
417 426 -4772 0
-426 -4772 0
-417 426 4772 0
-426 -4773 0
426 435 -4773 0
426 -435 4773 0
426 435 -4774 0
-435 -4774 0
-426 435 4774 0
-435 -4775 0
435 444 -4775 0
435 -444 4775 0
435 444 -4776 0
-444 -4776 0
-435 444 4776 0
-444 -4777 0
444 456 -4777 0
444 -456 4777 0
444 456 -4778 0
-456 -4778 0
-444 456 4778 0
-456 -4779 0
456 465 -4779 0
456 -465 4779 0
456 465 -4780 0
-465 -4780 0
-456 465 4780 0
-465 -4781 0
465 474 -4781 0
465 -474 4781 0
465 474 -4782 0
-474 -4782 0
-465 474 4782 0
-474 -4783 0
474 483 -4783 0
474 -483 4783 0
474 483 -4784 0
-483 -4784 0
-474 483 4784 0
-483 -4785 0
483 495 -4785 0
483 -495 4785 0
483 495 -4786 0
-495 -4786 0
-483 495 4786 0
-495 -4787 0
495 504 -4787 0
495 -504 4787 0
495 504 -4788 0
-504 -4788 0
-495 504 4788 0
-504 -4789 0
504 513 -4789 0
504 -513 4789 0
504 513 -4790 0
-513 -4790 0
-504 513 4790 0
-513 -4791 0
513 522 -4791 0
513 -522 4791 0
513 522 -4792 0
-522 -4792 0
-513 522 4792 0
-522 -4793 0
522 534 -4793 0
522 -534 4793 0
522 534 -4794 0
-534 -4794 0
-522 534 4794 0
-534 -4795 0
534 543 -4795 0
534 -543 4795 0
534 543 -4796 0
-543 -4796 0
-534 543 4796 0
-543 -4797 0
543 552 -4797 0
543 -552 4797 0
543 552 -4798 0
-552 -4798 0
-543 552 4798 0
-552 -4799 0
552 561 -4799 0
552 -561 4799 0
552 561 -4800 0
-561 -4800 0
-552 561 4800 0
-561 -4801 0
561 573 -4801 0
561 -573 4801 0
561 573 -4802 0
-573 -4802 0
-561 573 4802 0
-573 -4803 0
573 582 -4803 0
573 -582 4803 0
573 582 -4804 0
-582 -4804 0
-573 582 4804 0
-582 -4805 0
582 591 -4805 0
582 -591 4805 0
582 591 -4806 0
-591 -4806 0
-582 591 4806 0
-591 -4807 0
591 600 -4807 0
591 -600 4807 0
591 600 -4808 0
-600 -4808 0
-591 600 4808 0
-600 -4809 0
600 609 -4809 0
600 -609 4809 0
600 609 -4810 0
-609 -4810 0
-600 609 4810 0
609 618 -4811 0
609 -618 4811 0
609 618 -4812 0
-618 -4812 0
-609 618 4812 0
-4813 0
4814 -618 0
618 -4814 0
4815 -627 0
627 -4815 0
-4816 0
627 636 -4817 0
627 -636 4817 0
627 636 -4818 0
-627 636 4818 0
-636 -4819 0
636 645 -4819 0
636 -645 4819 0
636 645 -4820 0
-645 -4820 0
-636 645 4820 0
-645 -4821 0
645 654 -4821 0
645 -654 4821 0
645 654 -4822 0
-654 -4822 0
-645 654 4822 0
-654 -4823 0
654 663 -4823 0
654 -663 4823 0
654 663 -4824 0
-663 -4824 0
-654 663 4824 0
-663 -4825 0
663 672 -4825 0
663 -672 4825 0
663 672 -4826 0
-672 -4826 0
-663 672 4826 0
-672 -4827 0
672 681 -4827 0
672 -681 4827 0
672 681 -4828 0
-681 -4828 0
-672 681 4828 0
-681 -4829 0
681 690 -4829 0
681 -690 4829 0
681 690 -4830 0
-690 -4830 0
-681 690 4830 0
-690 -4831 0
690 699 -4831 0
690 -699 4831 0
690 699 -4832 0
-699 -4832 0
-690 699 4832 0
-699 -4833 0
699 708 -4833 0
699 -708 4833 0
699 708 -4834 0
-708 -4834 0
-699 708 4834 0
-708 -4835 0
708 719 -4835 0
708 -719 4835 0
708 719 -4836 0
-719 -4836 0
-708 719 4836 0
-719 -4837 0
719 728 -4837 0
719 -728 4837 0
719 728 -4838 0
-728 -4838 0
-719 728 4838 0
-728 -4839 0
728 740 -4839 0
728 -740 4839 0
728 740 -4840 0
-740 -4840 0
-728 740 4840 0
-740 -4841 0
740 749 -4841 0
740 -749 4841 0
740 749 -4842 0
-749 -4842 0
-740 749 4842 0
-749 -4843 0
749 758 -4843 0
749 -758 4843 0
749 758 -4844 0
-758 -4844 0
-749 758 4844 0
-758 -4845 0
758 767 -4845 0
758 -767 4845 0
758 767 -4846 0
-767 -4846 0
-758 767 4846 0
-767 -4847 0
767 779 -4847 0
767 -779 4847 0
767 779 -4848 0
-779 -4848 0
-767 779 4848 0
-779 -4849 0
779 788 -4849 0
779 -788 4849 0
779 788 -4850 0
-788 -4850 0
-779 788 4850 0
-788 -4851 0
788 797 -4851 0
788 -797 4851 0
788 797 -4852 0
-797 -4852 0
-788 797 4852 0
-797 -4853 0
797 806 -4853 0
797 -806 4853 0
797 806 -4854 0
-806 -4854 0
-797 806 4854 0
-806 -4855 0
806 815 -4855 0
806 -815 4855 0
806 815 -4856 0
-815 -4856 0
-806 815 4856 0
-815 -4857 0
815 824 -4857 0
815 -824 4857 0
815 824 -4858 0
-824 -4858 0
-815 824 4858 0
-824 -4859 0
824 833 -4859 0
824 -833 4859 0
824 833 -4860 0
-833 -4860 0
-824 833 4860 0
-833 -4861 0
833 842 -4861 0
833 -842 4861 0
833 842 -4862 0
-842 -4862 0
-833 842 4862 0
-842 -4863 0
842 851 -4863 0
842 -851 4863 0
842 851 -4864 0
-851 -4864 0
-842 851 4864 0
851 860 -4865 0
851 -860 4865 0
851 860 -4866 0
-860 -4866 0
-851 860 4866 0
-4867 0
4868 -860 0
860 -4868 0
4869 -869 0
869 -4869 0
-4870 0
869 878 -4871 0
869 -878 4871 0
869 878 -4872 0
-869 878 4872 0
-878 -4873 0
878 887 -4873 0
878 -887 4873 0
878 887 -4874 0
-887 -4874 0
-878 887 4874 0
-887 -4875 0
887 896 -4875 0
887 -896 4875 0
887 896 -4876 0
-896 -4876 0
-887 896 4876 0
-896 -4877 0
896 905 -4877 0
896 -905 4877 0
896 905 -4878 0
-905 -4878 0
-896 905 4878 0
-905 -4879 0
905 914 -4879 0
905 -914 4879 0
905 914 -4880 0
-914 -4880 0
-905 914 4880 0
-914 -4881 0
914 923 -4881 0
914 -923 4881 0
914 923 -4882 0
-923 -4882 0
-914 923 4882 0
-923 -4883 0
923 932 -4883 0
923 -932 4883 0
923 932 -4884 0
-932 -4884 0
-923 932 4884 0
-932 -4885 0
932 944 -4885 0
932 -944 4885 0
932 944 -4886 0
-944 -4886 0
-932 944 4886 0
-944 -4887 0
944 953 -4887 0
944 -953 4887 0
944 953 -4888 0
-953 -4888 0
-944 953 4888 0
-953 -4889 0
953 962 -4889 0
953 -962 4889 0
953 962 -4890 0
-962 -4890 0
-953 962 4890 0
-962 -4891 0
962 971 -4891 0
962 -971 4891 0
962 971 -4892 0
-971 -4892 0
-962 971 4892 0
-971 -4893 0
971 983 -4893 0
971 -983 4893 0
971 983 -4894 0
-983 -4894 0
-971 983 4894 0
-983 -4895 0
983 992 -4895 0
983 -992 4895 0
983 992 -4896 0
-992 -4896 0
-983 992 4896 0
-992 -4897 0
992 1001 -4897 0
992 -1001 4897 0
992 1001 -4898 0
-1001 -4898 0
-992 1001 4898 0
-1001 -4899 0
1001 1010 -4899 0
1001 -1010 4899 0
1001 1010 -4900 0
-1010 -4900 0
-1001 1010 4900 0
-1010 -4901 0
1010 1022 -4901 0
1010 -1022 4901 0
1010 1022 -4902 0
-1022 -4902 0
-1010 1022 4902 0
-1022 -4903 0
1022 1031 -4903 0
1022 -1031 4903 0
1022 1031 -4904 0
-1031 -4904 0
-1022 1031 4904 0
-1031 -4905 0
1031 1040 -4905 0
1031 -1040 4905 0
1031 1040 -4906 0
-1040 -4906 0
-1031 1040 4906 0
-1040 -4907 0
1040 1049 -4907 0
1040 -1049 4907 0
1040 1049 -4908 0
-1049 -4908 0
-1040 1049 4908 0
-1049 -4909 0
1049 1061 -4909 0
1049 -1061 4909 0
1049 1061 -4910 0
-1061 -4910 0
-1049 1061 4910 0
-1061 -4911 0
1061 1070 -4911 0
1061 -1070 4911 0
1061 1070 -4912 0
-1070 -4912 0
-1061 1070 4912 0
-1070 -4913 0
1070 1079 -4913 0
1070 -1079 4913 0
1070 1079 -4914 0
-1079 -4914 0
-1070 1079 4914 0
-1079 -4915 0
1079 1088 -4915 0
1079 -1088 4915 0
1079 1088 -4916 0
-1088 -4916 0
-1079 1088 4916 0
-1088 -4917 0
1088 1097 -4917 0
1088 -1097 4917 0
1088 1097 -4918 0
-1097 -4918 0
-1088 1097 4918 0
1097 1106 -4919 0
1097 -1106 4919 0
1097 1106 -4920 0
-1106 -4920 0
-1097 1106 4920 0
-4921 0
4922 -1106 0
1106 -4922 0
-4923 0
-4924 0
-4925 0
-4926 0
-4927 0
-4928 0
-4929 0
-4930 0
-4931 0
-4932 0
-4933 0
-4934 0
-4935 0
-4936 0
4937 -1163 0
1163 -4937 0
-4938 0
1163 1174 -4939 0
1163 -1174 4939 0
1163 1174 -4940 0
-1163 1174 4940 0
-1174 -4941 0
1174 1183 -4941 0
1174 -1183 4941 0
1174 1183 -4942 0
-1174 1183 4942 0
-1183 -4943 0
1183 1192 -4943 0
1183 -1192 4943 0
1183 1192 -4944 0
-1192 -4944 0
-1183 1192 4944 0
1192 1203 -4945 0
1192 -1203 4945 0
1192 1203 -4946 0
-1203 -4946 0
-1192 1203 4946 0
1203 1212 -4947 0
1203 -1212 4947 0
1203 1212 -4948 0
-1212 -4948 0
-1203 1212 4948 0
-4949 0
4950 -1212 0
1212 -4950 0
4951 -1221 0
1221 -4951 0
-4952 0
1221 1232 -4953 0
1221 -1232 4953 0
1221 1232 -4954 0
-1221 1232 4954 0
-1232 -4955 0
1232 1241 -4955 0
1232 -1241 4955 0
1232 1241 -4956 0
-1232 1241 4956 0
-1241 -4957 0
1241 1250 -4957 0
1241 -1250 4957 0
1241 1250 -4958 0
-1250 -4958 0
-1241 1250 4958 0
1250 1261 -4959 0
1250 -1261 4959 0
1250 1261 -4960 0
-1261 -4960 0
-1250 1261 4960 0
1261 1270 -4961 0
1261 -1270 4961 0
1261 1270 -4962 0
-1270 -4962 0
-1261 1270 4962 0
-4963 0
4964 -1270 0
1270 -4964 0
4965 -1279 0
1279 -4965 0
-4966 0
1279 1290 -4967 0
1279 -1290 4967 0
1279 1290 -4968 0
-1279 1290 4968 0
-1290 -4969 0
1290 1299 -4969 0
1290 -1299 4969 0
1290 1299 -4970 0
-1290 1299 4970 0
-1299 -4971 0
1299 1308 -4971 0
1299 -1308 4971 0
1299 1308 -4972 0
-1308 -4972 0
-1299 1308 4972 0
1308 1319 -4973 0
1308 -1319 4973 0
1308 1319 -4974 0
-1319 -4974 0
-1308 1319 4974 0
1319 1328 -4975 0
1319 -1328 4975 0
1319 1328 -4976 0
-1328 -4976 0
-1319 1328 4976 0
-4977 0
4978 -1328 0
1328 -4978 0
4979 -1337 0
1337 -4979 0
-4980 0
1337 1348 -4981 0
1337 -1348 4981 0
1337 1348 -4982 0
-1337 1348 4982 0
-1348 -4983 0
1348 1357 -4983 0
1348 -1357 4983 0
1348 1357 -4984 0
-1348 1357 4984 0
-1357 -4985 0
1357 1366 -4985 0
1357 -1366 4985 0
1357 1366 -4986 0
-1366 -4986 0
-1357 1366 4986 0
1366 1377 -4987 0
1366 -1377 4987 0
1366 1377 -4988 0
-1377 -4988 0
-1366 1377 4988 0
1377 1386 -4989 0
1377 -1386 4989 0
1377 1386 -4990 0
-1386 -4990 0
-1377 1386 4990 0
-4991 0
4992 -1386 0
1386 -4992 0
4993 -1395 0
1395 -4993 0
-4994 0
1395 1406 -4995 0
1395 -1406 4995 0
1395 1406 -4996 0
-1395 1406 4996 0
-1406 -4997 0
1406 1415 -4997 0
1406 -1415 4997 0
1406 1415 -4998 0
-1406 1415 4998 0
-1415 -4999 0
1415 1424 -4999 0
1415 -1424 4999 0
1415 1424 -5000 0
-1424 -5000 0
-1415 1424 5000 0
1424 1435 -5001 0
1424 -1435 5001 0
1424 1435 -5002 0
-1435 -5002 0
-1424 1435 5002 0
1435 1444 -5003 0
1435 -1444 5003 0
1435 1444 -5004 0
-1444 -5004 0
-1435 1444 5004 0
-5005 0
5006 -1444 0
1444 -5006 0
-5007 0
-5008 0
-5009 0
-5010 0
-5011 0
-5012 0
-5013 0
-5014 0
-5015 0
-5016 0
-5017 0
-5018 0
-5019 0
-5020 0
69 -2027 0
78 -2027 0
99 -2038 0
126 -2061 0
135 -2061 0
156 -2074 0
183 -2097 0
192 -2097 0
237 -2133 0
246 -2133 0
267 -2144 0
294 -2167 0
303 -2167 0
324 -2180 0
51 -1774 0
417 -1774 0
426 -1774 0
99 -1797 0
905 -1797 0
914 -1797 0
108 -1809 0
456 -1809 0
465 -1809 0
156 -1832 0
944 -1832 0
953 -1832 0
165 -1844 0
495 -1844 0
504 -1844 0
210 -1867 0
983 -1867 0
992 -1867 0
219 -1879 0
534 -1879 0
543 -1879 0
267 -1902 0
1022 -1902 0
1031 -1902 0
276 -1914 0
573 -1914 0
582 -1914 0
324 -1937 0
1061 -1937 0
1070 -1937 0
417 -1534 0
426 -1534 0
1163 -1534 0
663 -1546 0
672 -1546 0
1183 -1546 0
1192 -1546 0
905 -1558 0
914 -1558 0
1212 -1558 0
456 -1570 0
465 -1570 0
1221 -1570 0
699 -1582 0
708 -1582 0
1241 -1582 0
1250 -1582 0
944 -1594 0
953 -1594 0
1270 -1594 0
495 -1606 0
504 -1606 0
1279 -1606 0
740 -1618 0
749 -1618 0
1299 -1618 0
1308 -1618 0
983 -1630 0
992 -1630 0
1328 -1630 0
534 -1642 0
543 -1642 0
1337 -1642 0
779 -1654 0
788 -1654 0
1357 -1654 0
1366 -1654 0
1022 -1666 0
1031 -1666 0
1386 -1666 0
573 -1678 0
582 -1678 0
1395 -1678 0
815 -1690 0
824 -1690 0
1415 -1690 0
1424 -1690 0
1061 -1702 0
1070 -1702 0
1444 -1702 0
-2027 -2038 0
-2038 -2074 0
-2061 -2074 0
-2097 -2061 0
-2097 -2133 0
-2133 -2144 0
-2144 -2180 0
-2167 -2180 0
-5021 0
-5022 0
-5023 0
-5024 0
-5025 0
-5026 0
-5027 0
-1534 -1570 0
-1546 -1582 0
-1558 -1594 0
-1606 -1570 0
-1606 -1642 0
-1618 -1582 0
-1618 -1654 0
-1630 -1594 0
-1630 -1666 0
-1642 -1678 0
-1654 -1690 0
-1666 -1702 0
-4677 -4679 0
-4691 -4693 0
-4705 -4707 0
-4719 -4721 0
-4733 -4735 0
-4761 -4763 0
-4761 -4817 0
-4761 -4819 0
-4761 -4821 0
-4761 -4871 0
-4761 -4873 0
-4766 -4767 0
-4766 -4769 0
-4766 -4771 0
-4766 -4773 0
-4766 -4823 0
-4766 -4825 0
-4766 -4875 0
-4766 -4877 0
-4768 -4769 0
-4768 -4771 0
-4768 -4773 0
-4768 -4775 0
-4768 -4823 0
-4768 -4825 0
-4768 -4827 0
-4768 -4877 0
-4768 -4879 0
-4770 -4771 0
-4770 -4773 0
-4770 -4775 0
-4770 -4777 0
-4770 -4825 0
-4770 -4827 0
-4770 -4829 0
-4770 -4879 0
-4770 -4881 0
-4772 -4773 0
-4772 -4775 0
-4772 -4777 0
-4772 -4779 0
-4772 -4827 0
-4772 -4829 0
-4772 -4831 0
-4772 -4881 0
-4772 -4883 0
-4774 -4775 0
-4774 -4777 0
-4774 -4779 0
-4774 -4829 0
-4774 -4831 0
-4774 -4833 0
-4774 -4883 0
-4774 -4885 0
-4776 -4777 0
-4776 -4779 0
-4776 -4831 0
-4776 -4833 0
-4776 -4885 0
-4776 -4887 0
-4778 -4779 0
-4778 -4833 0
-4778 -4887 0
-4781 -4774 0
-4781 -4776 0
-4781 -4778 0
-4781 -4780 0
-4781 -4830 0
-4781 -4832 0
-4781 -4834 0
-4781 -4886 0
-4781 -4888 0
-4782 -4783 0
-4782 -4785 0
-4782 -4787 0
-4782 -4789 0
-4782 -4837 0
-4782 -4839 0
-4782 -4841 0
-4782 -4891 0
-4782 -4893 0
-4783 -4776 0
-4783 -4778 0
-4783 -4780 0
-4783 -4832 0
-4783 -4834 0
-4783 -4888 0
-4784 -4785 0
-4784 -4787 0
-4784 -4789 0
-4784 -4791 0
-4784 -4839 0
-4784 -4841 0
-4784 -4843 0
-4784 -4893 0
-4784 -4895 0
-4785 -4778 0
-4785 -4780 0
-4785 -4834 0
-4786 -4787 0
-4786 -4789 0
-4786 -4791 0
-4786 -4793 0
-4786 -4841 0
-4786 -4843 0
-4786 -4845 0
-4786 -4895 0
-4786 -4897 0
-4787 -4780 0
-4788 -4789 0
-4788 -4791 0
-4788 -4793 0
-4788 -4795 0
-4788 -4843 0
-4788 -4845 0
-4788 -4847 0
-4788 -4897 0
-4788 -4899 0
-4790 -4791 0
-4790 -4793 0
-4790 -4795 0
-4790 -4797 0
-4790 -4845 0
-4790 -4847 0
-4790 -4849 0
-4790 -4899 0
-4790 -4901 0
-4792 -4793 0
-4792 -4795 0
-4792 -4797 0
-4792 -4799 0
-4792 -4847 0
-4792 -4849 0
-4792 -4851 0
-4792 -4901 0
-4792 -4903 0
-4794 -4795 0
-4794 -4797 0
-4794 -4799 0
-4794 -4801 0
-4794 -4849 0
-4794 -4851 0
-4794 -4853 0
-4794 -4903 0
-4794 -4905 0
-4796 -4797 0
-4796 -4799 0
-4796 -4801 0
-4796 -4803 0
-4796 -4851 0
-4796 -4853 0
-4796 -4855 0
-4796 -4905 0
-4796 -4907 0
-4798 -4799 0
-4798 -4801 0
-4798 -4803 0
-4798 -4805 0
-4798 -4853 0
-4798 -4855 0
-4798 -4857 0
-4798 -4907 0
-4798 -4909 0
-4800 -4801 0
-4800 -4803 0
-4800 -4805 0
-4800 -4807 0
-4800 -4855 0
-4800 -4857 0
-4800 -4859 0
-4800 -4909 0
-4800 -4911 0
-4802 -4803 0
-4802 -4805 0
-4802 -4807 0
-4802 -4809 0
-4802 -4857 0
-4802 -4859 0
-4802 -4861 0
-4802 -4911 0
-4802 -4913 0
-4804 -4805 0
-4804 -4807 0
-4804 -4809 0
-4804 -4859 0
-4804 -4861 0
-4804 -4863 0
-4804 -4913 0
-4804 -4915 0
-4806 -4807 0
-4806 -4809 0
-4806 -4861 0
-4806 -4863 0
-4806 -4915 0
-4806 -4917 0
-4808 -4809 0
-4808 -4863 0
-4808 -4917 0
-4815 -4763 0
-4815 -4765 0
-4815 -4767 0
-4815 -4817 0
-4815 -4871 0
-4815 -4873 0
-4815 -4875 0
-4820 -4769 0
-4820 -4771 0
-4820 -4821 0
-4820 -4823 0
-4820 -4825 0
-4820 -4827 0
-4820 -4877 0
-4820 -4879 0
-4822 -4769 0
-4822 -4771 0
-4822 -4773 0
-4822 -4823 0
-4822 -4825 0
-4822 -4827 0
-4822 -4829 0
-4822 -4877 0
-4822 -4879 0
-4822 -4881 0
-4824 -4771 0
-4824 -4773 0
-4824 -4775 0
-4824 -4825 0
-4824 -4827 0
-4824 -4829 0
-4824 -4831 0
-4824 -4879 0
-4824 -4881 0
-4824 -4883 0
-4826 -4773 0
-4826 -4775 0
-4826 -4777 0
-4826 -4827 0
-4826 -4829 0
-4826 -4831 0
-4826 -4833 0
-4826 -4881 0
-4826 -4883 0
-4826 -4885 0
-4828 -4775 0
-4828 -4777 0
-4828 -4779 0
-4828 -4829 0
-4828 -4831 0
-4828 -4833 0
-4828 -4883 0
-4828 -4885 0
-4828 -4887 0
-4830 -4777 0
-4830 -4779 0
-4830 -4831 0
-4830 -4833 0
-4830 -4885 0
-4830 -4887 0
-4832 -4779 0
-4832 -4833 0
-4832 -4887 0
-4835 -4776 0
-4835 -4778 0
-4835 -4780 0
-4835 -4828 0
-4835 -4830 0
-4835 -4832 0
-4835 -4834 0
-4835 -4884 0
-4835 -4886 0
-4835 -4888 0
-4836 -4783 0
-4836 -4785 0
-4836 -4787 0
-4836 -4837 0
-4836 -4839 0
-4836 -4841 0
-4836 -4843 0
-4836 -4891 0
-4836 -4893 0
-4836 -4895 0
-4837 -4778 0
-4837 -4780 0
-4837 -4830 0
-4837 -4832 0
-4837 -4834 0
-4837 -4886 0
-4837 -4888 0
-4838 -4785 0
-4838 -4787 0
-4838 -4789 0
-4838 -4839 0
-4838 -4841 0
-4838 -4843 0
-4838 -4845 0
-4838 -4893 0
-4838 -4895 0
-4838 -4897 0
-4839 -4780 0
-4839 -4832 0
-4839 -4834 0
-4839 -4888 0
-4840 -4787 0
-4840 -4789 0
-4840 -4791 0
-4840 -4841 0
-4840 -4843 0
-4840 -4845 0
-4840 -4847 0
-4840 -4895 0
-4840 -4897 0
-4840 -4899 0
-4841 -4834 0
-4842 -4789 0
-4842 -4791 0
-4842 -4793 0
-4842 -4843 0
-4842 -4845 0
-4842 -4847 0
-4842 -4849 0
-4842 -4897 0
-4842 -4899 0
-4842 -4901 0
-4844 -4791 0
-4844 -4793 0
-4844 -4795 0
-4844 -4845 0
-4844 -4847 0
-4844 -4849 0
-4844 -4851 0
-4844 -4899 0
-4844 -4901 0
-4844 -4903 0
-4846 -4793 0
-4846 -4795 0
-4846 -4797 0
-4846 -4847 0
-4846 -4849 0
-4846 -4851 0
-4846 -4853 0
-4846 -4901 0
-4846 -4903 0
-4846 -4905 0
-4848 -4795 0
-4848 -4797 0
-4848 -4799 0
-4848 -4849 0
-4848 -4851 0
-4848 -4853 0
-4848 -4855 0
-4848 -4903 0
-4848 -4905 0
-4848 -4907 0
-4850 -4797 0
-4850 -4799 0
-4850 -4801 0
-4850 -4851 0
-4850 -4853 0
-4850 -4855 0
-4850 -4857 0
-4850 -4905 0
-4850 -4907 0
-4850 -4909 0
-4852 -4799 0
-4852 -4801 0
-4852 -4803 0
-4852 -4853 0
-4852 -4855 0
-4852 -4857 0
-4852 -4859 0
-4852 -4907 0
-4852 -4909 0
-4852 -4911 0
-4854 -4801 0
-4854 -4803 0
-4854 -4805 0
-4854 -4855 0
-4854 -4857 0
-4854 -4859 0
-4854 -4861 0
-4854 -4909 0
-4854 -4911 0
-4854 -4913 0
-4856 -4803 0
-4856 -4805 0
-4856 -4807 0
-4856 -4857 0
-4856 -4859 0
-4856 -4861 0
-4856 -4863 0
-4856 -4911 0
-4856 -4913 0
-4856 -4915 0
-4858 -4805 0
-4858 -4807 0
-4858 -4809 0
-4858 -4859 0
-4858 -4861 0
-4858 -4863 0
-4858 -4913 0
-4858 -4915 0
-4858 -4917 0
-4860 -4807 0
-4860 -4809 0
-4860 -4861 0
-4860 -4863 0
-4860 -4915 0
-4860 -4917 0
-4862 -4809 0
-4862 -4863 0
-4862 -4917 0
-4869 -4763 0
-4869 -4765 0
-4869 -4817 0
-4869 -4819 0
-4869 -4821 0
-4869 -4871 0
-4874 -4767 0
-4874 -4769 0
-4874 -4823 0
-4874 -4825 0
-4874 -4875 0
-4874 -4877 0
-4874 -4879 0
-4874 -4881 0
-4876 -4769 0
-4876 -4771 0
-4876 -4823 0
-4876 -4825 0
-4876 -4827 0
-4876 -4877 0
-4876 -4879 0
-4876 -4881 0
-4876 -4883 0
-4878 -4771 0
-4878 -4773 0
-4878 -4825 0
-4878 -4827 0
-4878 -4829 0
-4878 -4879 0
-4878 -4881 0
-4878 -4883 0
-4878 -4885 0
-4880 -4773 0
-4880 -4775 0
-4880 -4827 0
-4880 -4829 0
-4880 -4831 0
-4880 -4881 0
-4880 -4883 0
-4880 -4885 0
-4880 -4887 0
-4882 -4775 0
-4882 -4777 0
-4882 -4829 0
-4882 -4831 0
-4882 -4833 0
-4882 -4883 0
-4882 -4885 0
-4882 -4887 0
-4884 -4777 0
-4884 -4779 0
-4884 -4831 0
-4884 -4833 0
-4884 -4885 0
-4884 -4887 0
-4886 -4779 0
-4886 -4833 0
-4886 -4887 0
-4889 -4778 0
-4889 -4780 0
-4889 -4830 0
-4889 -4832 0
-4889 -4834 0
-4889 -4882 0
-4889 -4884 0
-4889 -4886 0
-4889 -4888 0
-4890 -4783 0
-4890 -4785 0
-4890 -4837 0
-4890 -4839 0
-4890 -4841 0
-4890 -4891 0
-4890 -4893 0
-4890 -4895 0
-4890 -4897 0
-4891 -4780 0
-4891 -4832 0
-4891 -4834 0
-4891 -4884 0
-4891 -4886 0
-4891 -4888 0
-4892 -4785 0
-4892 -4787 0
-4892 -4839 0
-4892 -4841 0
-4892 -4843 0
-4892 -4893 0
-4892 -4895 0
-4892 -4897 0
-4892 -4899 0
-4893 -4834 0
-4893 -4886 0
-4893 -4888 0
-4894 -4787 0
-4894 -4789 0
-4894 -4841 0
-4894 -4843 0
-4894 -4845 0
-4894 -4895 0
-4894 -4897 0
-4894 -4899 0
-4894 -4901 0
-4895 -4888 0
-4896 -4789 0
-4896 -4791 0
-4896 -4843 0
-4896 -4845 0
-4896 -4847 0
-4896 -4897 0
-4896 -4899 0
-4896 -4901 0
-4896 -4903 0
-4898 -4791 0
-4898 -4793 0
-4898 -4845 0
-4898 -4847 0
-4898 -4849 0
-4898 -4899 0
-4898 -4901 0
-4898 -4903 0
-4898 -4905 0
-4900 -4793 0
-4900 -4795 0
-4900 -4847 0
-4900 -4849 0
-4900 -4851 0
-4900 -4901 0
-4900 -4903 0
-4900 -4905 0
-4900 -4907 0
-4902 -4795 0
-4902 -4797 0
-4902 -4849 0
-4902 -4851 0
-4902 -4853 0
-4902 -4903 0
-4902 -4905 0
-4902 -4907 0
-4902 -4909 0
-4904 -4797 0
-4904 -4799 0
-4904 -4851 0
-4904 -4853 0
-4904 -4855 0
-4904 -4905 0
-4904 -4907 0
-4904 -4909 0
-4904 -4911 0
-4906 -4799 0
-4906 -4801 0
-4906 -4853 0
-4906 -4855 0
-4906 -4857 0
-4906 -4907 0
-4906 -4909 0
-4906 -4911 0
-4906 -4913 0
-4908 -4801 0
-4908 -4803 0
-4908 -4855 0
-4908 -4857 0
-4908 -4859 0
-4908 -4909 0
-4908 -4911 0
-4908 -4913 0
-4908 -4915 0
-4910 -4803 0
-4910 -4805 0
-4910 -4857 0
-4910 -4859 0
-4910 -4861 0
-4910 -4911 0
-4910 -4913 0
-4910 -4915 0
-4910 -4917 0
-4912 -4805 0
-4912 -4807 0
-4912 -4859 0
-4912 -4861 0
-4912 -4863 0
-4912 -4913 0
-4912 -4915 0
-4912 -4917 0
-4914 -4807 0
-4914 -4809 0
-4914 -4861 0
-4914 -4863 0
-4914 -4915 0
-4914 -4917 0
-4916 -4809 0
-4916 -4863 0
-4916 -4917 0
-4937 -4939 0
-4951 -4953 0
-4965 -4967 0
-4979 -4981 0
-4993 -4995 0
-4677 -4680 0
-4677 -4682 0
-4679 -4680 0
-4679 -4682 0
-4679 -4684 0
-4681 -4682 0
-4681 -4684 0
-4681 -4686 0
-4683 -4686 0
-4683 -4688 0
-4685 -4686 0
-4685 -4688 0
-4685 -4690 0
-4687 -4688 0
-4687 -4690 0
-4691 -4694 0
-4691 -4696 0
-4693 -4694 0
-4693 -4696 0
-4693 -4698 0
-4695 -4696 0
-4695 -4698 0
-4695 -4700 0
-4697 -4700 0
-4697 -4702 0
-4699 -4700 0
-4699 -4702 0
-4699 -4704 0
-4701 -4702 0
-4701 -4704 0
-4705 -4708 0
-4705 -4710 0
-4707 -4708 0
-4707 -4710 0
-4707 -4712 0
-4709 -4710 0
-4709 -4712 0
-4709 -4714 0
-4711 -4714 0
-4711 -4716 0
-4713 -4714 0
-4713 -4716 0
-4713 -4718 0
-4715 -4716 0
-4715 -4718 0
-4719 -4722 0
-4719 -4724 0
-4721 -4722 0
-4721 -4724 0
-4721 -4726 0
-4723 -4724 0
-4723 -4726 0
-4723 -4728 0
-4725 -4728 0
-4725 -4730 0
-4727 -4728 0
-4727 -4730 0
-4727 -4732 0
-4729 -4730 0
-4729 -4732 0
-4733 -4736 0
-4733 -4738 0
-4735 -4736 0
-4735 -4738 0
-4735 -4740 0
-4737 -4738 0
-4737 -4740 0
-4737 -4742 0
-4739 -4742 0
-4739 -4744 0
-4741 -4742 0
-4741 -4744 0
-4741 -4746 0
-4743 -4744 0
-4743 -4746 0
-4761 -4764 0
-4763 -4764 0
-4763 -4766 0
-4765 -4768 0
-4767 -4770 0
-4769 -4772 0
-4771 -4774 0
-4773 -4776 0
-4775 -4778 0
-4777 -4780 0
-4779 -4782 0
-4781 -4784 0
-4783 -4786 0
-4785 -4788 0
-4787 -4790 0
-4789 -4792 0
-4791 -4794 0
-4793 -4796 0
-4795 -4798 0
-4797 -4800 0
-4799 -4802 0
-4801 -4804 0
-4803 -4806 0
-4805 -4808 0
-4807 -4810 0
-4809 -4812 0
-4811 -4812 0
-4811 -4814 0
-4815 -4818 0
-4817 -4818 0
-4817 -4820 0
-4819 -4822 0
-4821 -4824 0
-4823 -4826 0
-4825 -4828 0
-4827 -4830 0
-4829 -4832 0
-4831 -4834 0
-4833 -4836 0
-4835 -4838 0
-4837 -4840 0
-4839 -4842 0
-4841 -4844 0
-4843 -4846 0
-4845 -4848 0
-4847 -4850 0
-4849 -4852 0
-4851 -4854 0
-4853 -4856 0
-4855 -4858 0
-4857 -4860 0
-4859 -4862 0
-4861 -4864 0
-4863 -4866 0
-4865 -4866 0
-4865 -4868 0
-4869 -4872 0
-4871 -4872 0
-4871 -4874 0
-4873 -4876 0
-4875 -4878 0
-4877 -4880 0
-4879 -4882 0
-4881 -4884 0
-4883 -4886 0
-4885 -4888 0
-4887 -4890 0
-4889 -4892 0
-4891 -4894 0
-4893 -4896 0
-4895 -4898 0
-4897 -4900 0
-4899 -4902 0
-4901 -4904 0
-4903 -4906 0
-4905 -4908 0
-4907 -4910 0
-4909 -4912 0
-4911 -4914 0
-4913 -4916 0
-4915 -4918 0
-4917 -4920 0
-4919 -4920 0
-4919 -4922 0
-4937 -4940 0
-4937 -4942 0
-4939 -4940 0
-4939 -4942 0
-4939 -4944 0
-4941 -4942 0
-4941 -4944 0
-4941 -4946 0
-4943 -4946 0
-4943 -4948 0
-4945 -4946 0
-4945 -4948 0
-4945 -4950 0
-4947 -4948 0
-4947 -4950 0
-4951 -4954 0
-4951 -4956 0
-4953 -4954 0
-4953 -4956 0
-4953 -4958 0
-4955 -4956 0
-4955 -4958 0
-4955 -4960 0
-4957 -4960 0
-4957 -4962 0
-4959 -4960 0
-4959 -4962 0
-4959 -4964 0
-4961 -4962 0
-4961 -4964 0
-4965 -4968 0
-4965 -4970 0
-4967 -4968 0
-4967 -4970 0
-4967 -4972 0
-4969 -4970 0
-4969 -4972 0
-4969 -4974 0
-4971 -4974 0
-4971 -4976 0
-4973 -4974 0
-4973 -4976 0
-4973 -4978 0
-4975 -4976 0
-4975 -4978 0
-4979 -4982 0
-4979 -4984 0
-4981 -4982 0
-4981 -4984 0
-4981 -4986 0
-4983 -4984 0
-4983 -4986 0
-4983 -4988 0
-4985 -4988 0
-4985 -4990 0
-4987 -4988 0
-4987 -4990 0
-4987 -4992 0
-4989 -4990 0
-4989 -4992 0
-4993 -4996 0
-4993 -4998 0
-4995 -4996 0
-4995 -4998 0
-4995 -5000 0
-4997 -4998 0
-4997 -5000 0
-4997 -5002 0
-4999 -5002 0
-4999 -5004 0
-5001 -5002 0
-5001 -5004 0
-5001 -5006 0
-5003 -5004 0
-5003 -5006 0
-381 -627 0
-417 -663 0
-456 -699 0
-495 -740 0
-534 -779 0
-573 -815 0
-609 -851 0
-627 -869 0
-663 -905 0
-699 -944 0
-740 -983 0
-779 -1022 0
-815 -1061 0
-851 -1097 0
-5028 0
-5029 0
-5030 0
-5031 0
-5032 0
-5033 0
-5034 0
-5035 0
-5036 0
-5037 0
-5038 0
-5039 0
-5040 0
-5041 0
-5042 0
-5043 0
-5044 0
-5045 0
-5046 0
-5047 0
-5048 0
-5049 0
-5050 0
-5051 0
-5052 0
-5053 0
-5054 0
-5055 0
-5056 0
-5057 0
-5058 0
-5059 0
-5060 0
-5061 0
-5062 0
-5063 0
-5064 0
-5065 0
-5066 0
-5067 0
