p cnf 5067 15465
1 0
-2 0
3 0
4 0
-5 0
6 0
7 0
-8 0
-9 0
-10 0
-11 0
12 0
-13 0
14 0
15 0
-16 0
17 0
18 0
-19 0
-20 0
-21 0
-22 0
23 0
-24 0
25 0
26 0
-27 0
28 0
29 0
-30 0
-31 0
-32 0
-33 0
34 0
-35 0
36 0
37 0
-38 0
39 0
40 0
-41 0
-42 0
-43 0
-44 0
45 0
-46 0
47 0
48 0
-49 0
50 0
51 0
-52 0
53 0
-54 0
55 0
56 0
-57 0
58 0
59 0
-60 0
61 62 -63 0
-64 -63 0
64 63 0
-65 0
-61 66 0
-64 66 0
61 64 -66 0
67 -66 0
-67 66 0
-61 -64 0
-62 68 0
-67 68 0
62 67 -68 0
69 -68 0
-69 68 0
-62 -67 0
70 -71 0
72 -73 0
72 -74 0
70 72 -75 0
-76 -75 0
76 75 0
-77 0
-70 78 0
-76 78 0
70 76 -78 0
79 -78 0
-79 78 0
-70 -76 0
-72 80 0
-79 80 0
72 79 -80 0
81 -80 0
-81 80 0
-72 -79 0
82 -83 0
84 -85 0
84 -86 0
82 84 -87 0
-88 -87 0
88 87 0
-89 0
-82 90 0
-88 90 0
82 88 -90 0
91 -90 0
-91 90 0
-82 -88 0
-84 92 0
-91 92 0
84 91 -92 0
93 -92 0
-93 92 0
-84 -91 0
94 -95 0
96 -97 0
96 -98 0
94 96 -99 0
-100 -99 0
100 99 0
-101 0
-94 102 0
-100 102 0
94 100 -102 0
103 -102 0
-103 102 0
-94 -100 0
-96 104 0
-103 104 0
96 103 -104 0
105 -104 0
-105 104 0
-96 -103 0
106 -107 0
108 -109 0
108 -110 0
106 108 -111 0
-112 -111 0
112 111 0
-113 0
-106 114 0
-112 114 0
106 112 -114 0
115 -114 0
-115 114 0
-106 -112 0
-108 116 0
-115 116 0
108 115 -116 0
117 -116 0
-117 116 0
-108 -115 0
118 119 -120 0
-121 -120 0
121 120 0
-122 0
-118 123 0
-121 123 0
118 121 -123 0
124 -123 0
-124 123 0
-118 -121 0
-119 125 0
-124 125 0
119 124 -125 0
126 -125 0
-126 125 0
-119 -124 0
127 128 -129 0
-130 -129 0
130 129 0
-131 0
-127 132 0
-130 132 0
127 130 -132 0
133 -132 0
-133 132 0
-127 -130 0
-128 134 0
-133 134 0
128 133 -134 0
135 -134 0
-135 134 0
-128 -133 0
136 -137 0
138 -139 0
138 -140 0
136 138 -141 0
-142 -141 0
142 141 0
-143 0
-136 144 0
-142 144 0
136 142 -144 0
145 -144 0
-145 144 0
-136 -142 0
-138 146 0
-145 146 0
138 145 -146 0
147 -146 0
-147 146 0
-138 -145 0
148 -149 0
150 -151 0
150 -152 0
148 150 -153 0
-154 -153 0
154 153 0
-155 0
-148 156 0
-154 156 0
148 154 -156 0
157 -156 0
-157 156 0
-148 -154 0
-150 158 0
-157 158 0
150 157 -158 0
159 -158 0
-159 158 0
-150 -157 0
160 -161 0
162 -163 0
162 -164 0
160 162 -165 0
-166 -165 0
166 165 0
-167 0
-160 168 0
-166 168 0
160 166 -168 0
169 -168 0
-169 168 0
-160 -166 0
-162 170 0
-169 170 0
162 169 -170 0
171 -170 0
-171 170 0
-162 -169 0
172 -173 0
174 -175 0
174 -176 0
172 174 -177 0
-178 -177 0
178 177 0
-179 0
-172 180 0
-178 180 0
172 178 -180 0
181 -180 0
-181 180 0
-172 -178 0
-174 182 0
-181 182 0
174 181 -182 0
183 -182 0
-183 182 0
-174 -181 0
184 185 -186 0
-187 -186 0
187 186 0
-188 0
-184 189 0
-187 189 0
184 187 -189 0
190 -189 0
-190 189 0
-184 -187 0
-185 191 0
-190 191 0
185 190 -191 0
192 -191 0
-192 191 0
-185 -190 0
193 194 -195 0
-196 -195 0
196 195 0
-197 0
-193 198 0
-196 198 0
193 196 -198 0
199 -198 0
-199 198 0
-193 -196 0
-194 200 0
-199 200 0
194 199 -200 0
201 -200 0
-201 200 0
-194 -199 0
202 -203 0
204 -205 0
204 -206 0
202 204 -207 0
-208 -207 0
208 207 0
-209 0
-202 210 0
-208 210 0
202 208 -210 0
211 -210 0
-211 210 0
-202 -208 0
-204 212 0
-211 212 0
204 211 -212 0
213 -212 0
-213 212 0
-204 -211 0
214 -215 0
216 -217 0
216 -218 0
214 216 -219 0
-220 -219 0
220 219 0
-221 0
-214 222 0
-220 222 0
214 220 -222 0
223 -222 0
-223 222 0
-214 -220 0
-216 224 0
-223 224 0
216 223 -224 0
225 -224 0
-225 224 0
-216 -223 0
226 -227 0
228 -229 0
228 -230 0
226 228 -231 0
-232 -231 0
232 231 0
-233 0
-226 234 0
-232 234 0
226 232 -234 0
235 -234 0
-235 234 0
-226 -232 0
-228 236 0
-235 236 0
228 235 -236 0
237 -236 0
-237 236 0
-228 -235 0
238 -239 0
240 -241 0
240 -242 0
238 240 -243 0
-244 -243 0
244 243 0
-245 0
-238 246 0
-244 246 0
238 244 -246 0
247 -246 0
-247 246 0
-238 -244 0
-240 248 0
-247 248 0
240 247 -248 0
249 -248 0
-249 248 0
-240 -247 0
250 251 -252 0
-253 -252 0
253 252 0
-254 0
-250 255 0
-253 255 0
250 253 -255 0
256 -255 0
-256 255 0
-250 -253 0
-251 257 0
-256 257 0
251 256 -257 0
258 -257 0
-258 257 0
-251 -256 0
259 260 -261 0
-262 -261 0
262 261 0
-263 0
-259 264 0
-262 264 0
259 262 -264 0
265 -264 0
-265 264 0
-259 -262 0
-260 266 0
-265 266 0
260 265 -266 0
267 -266 0
-267 266 0
-260 -265 0
268 -269 0
270 -271 0
270 -272 0
268 270 -273 0
-274 -273 0
274 273 0
-275 0
-268 276 0
-274 276 0
268 274 -276 0
277 -276 0
-277 276 0
-268 -274 0
-270 278 0
-277 278 0
270 277 -278 0
279 -278 0
-279 278 0
-270 -277 0
280 -281 0
282 -283 0
282 -284 0
280 282 -285 0
-286 -285 0
286 285 0
-287 0
-280 288 0
-286 288 0
280 286 -288 0
289 -288 0
-289 288 0
-280 -286 0
-282 290 0
-289 290 0
282 289 -290 0
291 -290 0
-291 290 0
-282 -289 0
292 -293 0
294 -295 0
294 -296 0
292 294 -297 0
-298 -297 0
298 297 0
-299 0
-292 300 0
-298 300 0
292 298 -300 0
301 -300 0
-301 300 0
-292 -298 0
-294 302 0
-301 302 0
294 301 -302 0
303 -302 0
-303 302 0
-294 -301 0
304 -305 0
306 -307 0
306 -308 0
304 306 -309 0
-310 -309 0
310 309 0
-311 0
-304 312 0
-310 312 0
304 310 -312 0
313 -312 0
-313 312 0
-304 -310 0
-306 314 0
-313 314 0
306 313 -314 0
315 -314 0
-315 314 0
-306 -313 0
316 317 -318 0
-319 -318 0
319 318 0
-320 0
-316 321 0
-319 321 0
316 319 -321 0
322 -321 0
-322 321 0
-316 -319 0
-317 323 0
-322 323 0
317 322 -323 0
324 -323 0
-324 323 0
-317 -322 0
325 326 -327 0
-328 -327 0
328 327 0
-329 0
-325 330 0
-328 330 0
325 328 -330 0
331 -330 0
-331 330 0
-325 -328 0
-326 332 0
-331 332 0
326 331 -332 0
333 -332 0
-333 332 0
-326 -331 0
334 -335 0
336 -337 0
336 -338 0
334 336 -339 0
-340 -339 0
340 339 0
-341 0
-334 342 0
-340 342 0
334 340 -342 0
343 -342 0
-343 342 0
-334 -340 0
-336 344 0
-343 344 0
336 343 -344 0
345 -344 0
-345 344 0
-336 -343 0
346 -347 0
348 -349 0
348 -350 0
346 348 -351 0
-352 -351 0
352 351 0
-353 0
-346 354 0
-352 354 0
346 352 -354 0
355 -354 0
-355 354 0
-346 -352 0
-348 356 0
-355 356 0
348 355 -356 0
357 -356 0
-357 356 0
-348 -355 0
358 -359 0
360 -361 0
360 -362 0
358 360 -363 0
-364 -363 0
364 363 0
-365 0
-358 366 0
-364 366 0
358 364 -366 0
367 -366 0
-367 366 0
-358 -364 0
-360 368 0
-367 368 0
360 367 -368 0
369 -368 0
-369 368 0
-360 -367 0
370 -371 0
372 -373 0
372 -374 0
370 372 -375 0
-376 -375 0
376 375 0
-377 0
-370 378 0
-376 378 0
370 376 -378 0
379 -378 0
-379 378 0
-370 -376 0
-372 380 0
-379 380 0
372 379 -380 0
381 -380 0
-381 380 0
-372 -379 0
382 383 -384 0
-385 -384 0
385 384 0
-386 0
-382 387 0
-385 387 0
382 385 -387 0
388 -387 0
-388 387 0
-382 -385 0
-383 389 0
-388 389 0
383 388 -389 0
390 -389 0
-390 389 0
-383 -388 0
391 0
-392 0
393 0
394 0
-395 0
396 0
397 0
-398 0
-399 0
-400 0
-401 0
402 0
-403 0
404 0
405 0
-406 0
407 0
408 0
-409 0
-410 0
-411 0
-412 0
413 0
-414 0
415 0
416 0
-417 0
418 0
419 0
-420 0
-421 0
-422 0
-423 0
424 0
-425 0
426 0
427 0
-428 0
429 0
430 0
-431 0
-432 0
-433 0
-434 0
435 0
-436 0
437 0
438 0
-439 0
440 0
441 0
-442 0
443 0
-444 0
445 0
446 0
-447 0
448 0
449 0
-450 0
451 452 -453 0
-454 -453 0
454 453 0
-455 0
-451 456 0
-454 456 0
451 454 -456 0
457 -456 0
-457 456 0
-451 -454 0
-452 458 0
-457 458 0
452 457 -458 0
459 -458 0
-459 458 0
-452 -457 0
460 -461 0
462 -463 0
462 -464 0
460 462 -465 0
-466 -465 0
466 465 0
-467 0
-460 468 0
-466 468 0
460 466 -468 0
469 -468 0
-469 468 0
-460 -466 0
-462 470 0
-469 470 0
462 469 -470 0
471 -470 0
-471 470 0
-462 -469 0
472 -473 0
474 -475 0
474 -476 0
472 474 -477 0
-478 -477 0
478 477 0
-479 0
-472 480 0
-478 480 0
472 478 -480 0
481 -480 0
-481 480 0
-472 -478 0
-474 482 0
-481 482 0
474 481 -482 0
483 -482 0
-483 482 0
-474 -481 0
484 -485 0
486 -487 0
486 -488 0
484 486 -489 0
-490 -489 0
490 489 0
-491 0
-484 492 0
-490 492 0
484 490 -492 0
493 -492 0
-493 492 0
-484 -490 0
-486 494 0
-493 494 0
486 493 -494 0
495 -494 0
-495 494 0
-486 -493 0
496 -497 0
498 -499 0
498 -500 0
496 498 -501 0
-502 -501 0
502 501 0
-503 0
-496 504 0
-502 504 0
496 502 -504 0
505 -504 0
-505 504 0
-496 -502 0
-498 506 0
-505 506 0
498 505 -506 0
507 -506 0
-507 506 0
-498 -505 0
508 -509 0
510 -511 0
510 -512 0
508 510 -513 0
-514 -513 0
514 513 0
-515 0
-508 516 0
-514 516 0
508 514 -516 0
517 -516 0
-517 516 0
-508 -514 0
-510 518 0
-517 518 0
510 517 -518 0
519 -518 0
-519 518 0
-510 -517 0
520 -521 0
522 -523 0
522 -524 0
520 522 -525 0
-526 -525 0
526 525 0
-527 0
-520 528 0
-526 528 0
520 526 -528 0
529 -528 0
-529 528 0
-520 -526 0
-522 530 0
-529 530 0
522 529 -530 0
531 -530 0
-531 530 0
-522 -529 0
532 -533 0
534 -535 0
534 -536 0
532 534 -537 0
-538 -537 0
538 537 0
-539 0
-532 540 0
-538 540 0
532 538 -540 0
541 -540 0
-541 540 0
-532 -538 0
-534 542 0
-541 542 0
534 541 -542 0
543 -542 0
-543 542 0
-534 -541 0
544 -545 0
546 -547 0
546 -548 0
544 546 -549 0
-550 -549 0
550 549 0
-551 0
-544 552 0
-550 552 0
544 550 -552 0
553 -552 0
-553 552 0
-544 -550 0
-546 554 0
-553 554 0
546 553 -554 0
555 -554 0
-555 554 0
-546 -553 0
556 -557 0
558 -559 0
558 -560 0
556 558 -561 0
-562 -561 0
562 561 0
-563 0
-556 564 0
-562 564 0
556 562 -564 0
565 -564 0
-565 564 0
-556 -562 0
-558 566 0
-565 566 0
558 565 -566 0
567 -566 0
-567 566 0
-558 -565 0
568 -569 0
570 -571 0
570 -572 0
568 570 -573 0
-574 -573 0
574 573 0
-575 0
-568 576 0
-574 576 0
568 574 -576 0
577 -576 0
-577 576 0
-568 -574 0
-570 578 0
-577 578 0
570 577 -578 0
579 -578 0
-579 578 0
-570 -577 0
580 -581 0
582 -583 0
582 -584 0
580 582 -585 0
-586 -585 0
586 585 0
-587 0
-580 588 0
-586 588 0
580 586 -588 0
589 -588 0
-589 588 0
-580 -586 0
-582 590 0
-589 590 0
582 589 -590 0
591 -590 0
-591 590 0
-582 -589 0
592 -593 0
594 -595 0
594 -596 0
592 594 -597 0
-598 -597 0
598 597 0
-599 0
-592 600 0
-598 600 0
592 598 -600 0
601 -600 0
-601 600 0
-592 -598 0
-594 602 0
-601 602 0
594 601 -602 0
603 -602 0
-603 602 0
-594 -601 0
604 -605 0
606 -607 0
606 -608 0
604 606 -609 0
-610 -609 0
610 609 0
-611 0
-604 612 0
-610 612 0
604 610 -612 0
613 -612 0
-613 612 0
-604 -610 0
-606 614 0
-613 614 0
606 613 -614 0
615 -614 0
-615 614 0
-606 -613 0
616 -617 0
618 -619 0
618 -620 0
616 618 -621 0
-622 -621 0
622 621 0
-623 0
-616 624 0
-622 624 0
616 622 -624 0
625 -624 0
-625 624 0
-616 -622 0
-618 626 0
-625 626 0
618 625 -626 0
627 -626 0
-627 626 0
-618 -625 0
628 -629 0
630 -631 0
630 -632 0
628 630 -633 0
-634 -633 0
634 633 0
-635 0
-628 636 0
-634 636 0
628 634 -636 0
637 -636 0
-637 636 0
-628 -634 0
-630 638 0
-637 638 0
630 637 -638 0
639 -638 0
-639 638 0
-630 -637 0
640 -641 0
642 -643 0
642 -644 0
640 642 -645 0
-646 -645 0
646 645 0
-647 0
-640 648 0
-646 648 0
640 646 -648 0
649 -648 0
-649 648 0
-640 -646 0
-642 650 0
-649 650 0
642 649 -650 0
651 -650 0
-651 650 0
-642 -649 0
652 -653 0
654 -655 0
654 -656 0
652 654 -657 0
-658 -657 0
658 657 0
-659 0
-652 660 0
-658 660 0
652 658 -660 0
661 -660 0
-661 660 0
-652 -658 0
-654 662 0
-661 662 0
654 661 -662 0
663 -662 0
-663 662 0
-654 -661 0
664 -665 0
666 -667 0
666 -668 0
664 666 -669 0
-670 -669 0
670 669 0
-671 0
-664 672 0
-670 672 0
664 670 -672 0
673 -672 0
-673 672 0
-664 -670 0
-666 674 0
-673 674 0
666 673 -674 0
675 -674 0
-675 674 0
-666 -673 0
676 -677 0
678 -679 0
678 -680 0
676 678 -681 0
-682 -681 0
682 681 0
-683 0
-676 684 0
-682 684 0
676 682 -684 0
685 -684 0
-685 684 0
-676 -682 0
-678 686 0
-685 686 0
678 685 -686 0
687 -686 0
-687 686 0
-678 -685 0
688 -689 0
690 -691 0
690 -692 0
688 690 -693 0
-694 -693 0
694 693 0
-695 0
-688 696 0
-694 696 0
688 694 -696 0
697 -696 0
-697 696 0
-688 -694 0
-690 698 0
-697 698 0
690 697 -698 0
699 -698 0
-699 698 0
-690 -697 0
700 -701 0
702 -703 0
702 -704 0
700 702 -705 0
-706 -705 0
706 705 0
-707 0
-700 708 0
-706 708 0
700 706 -708 0
709 -708 0
-709 708 0
-700 -706 0
-702 710 0
-709 710 0
702 709 -710 0
711 -710 0
-711 710 0
-702 -709 0
712 -713 0
714 -715 0
714 -716 0
712 714 -717 0
-718 -717 0
718 717 0
-719 0
-712 720 0
-718 720 0
712 718 -720 0
721 -720 0
-721 720 0
-712 -718 0
-714 722 0
-721 722 0
714 721 -722 0
723 -722 0
-723 722 0
-714 -721 0
724 -725 0
726 -727 0
726 -728 0
724 726 -729 0
-730 -729 0
730 729 0
-731 0
-724 732 0
-730 732 0
724 730 -732 0
733 -732 0
-733 732 0
-724 -730 0
-726 734 0
-733 734 0
726 733 -734 0
735 -734 0
-735 734 0
-726 -733 0
736 -737 0
738 -739 0
738 -740 0
736 738 -741 0
-742 -741 0
742 741 0
-743 0
-736 744 0
-742 744 0
736 742 -744 0
745 -744 0
-745 744 0
-736 -742 0
-738 746 0
-745 746 0
738 745 -746 0
747 -746 0
-747 746 0
-738 -745 0
748 749 -750 0
-751 -750 0
751 750 0
-752 0
-748 753 0
-751 753 0
748 751 -753 0
754 -753 0
-754 753 0
-748 -751 0
-749 755 0
-754 755 0
749 754 -755 0
756 -755 0
-756 755 0
-749 -754 0
757 758 -759 0
-760 -759 0
760 759 0
-761 0
-757 762 0
-760 762 0
757 760 -762 0
763 -762 0
-763 762 0
-757 -760 0
-758 764 0
-763 764 0
758 763 -764 0
765 -764 0
-765 764 0
-758 -763 0
766 -767 0
768 -769 0
768 -770 0
766 768 -771 0
-772 -771 0
772 771 0
-773 0
-766 774 0
-772 774 0
766 772 -774 0
775 -774 0
-775 774 0
-766 -772 0
-768 776 0
-775 776 0
768 775 -776 0
777 -776 0
-777 776 0
-768 -775 0
778 -779 0
780 -781 0
780 -782 0
778 780 -783 0
-784 -783 0
784 783 0
-785 0
-778 786 0
-784 786 0
778 784 -786 0
787 -786 0
-787 786 0
-778 -784 0
-780 788 0
-787 788 0
780 787 -788 0
789 -788 0
-789 788 0
-780 -787 0
790 -791 0
792 -793 0
792 -794 0
790 792 -795 0
-796 -795 0
796 795 0
-797 0
-790 798 0
-796 798 0
790 796 -798 0
799 -798 0
-799 798 0
-790 -796 0
-792 800 0
-799 800 0
792 799 -800 0
801 -800 0
-801 800 0
-792 -799 0
802 -803 0
804 -805 0
804 -806 0
802 804 -807 0
-808 -807 0
808 807 0
-809 0
-802 810 0
-808 810 0
802 808 -810 0
811 -810 0
-811 810 0
-802 -808 0
-804 812 0
-811 812 0
804 811 -812 0
813 -812 0
-813 812 0
-804 -811 0
814 -815 0
816 -817 0
816 -818 0
814 816 -819 0
-820 -819 0
820 819 0
-821 0
-814 822 0
-820 822 0
814 820 -822 0
823 -822 0
-823 822 0
-814 -820 0
-816 824 0
-823 824 0
816 823 -824 0
825 -824 0
-825 824 0
-816 -823 0
826 -827 0
828 -829 0
828 -830 0
826 828 -831 0
-832 -831 0
832 831 0
-833 0
-826 834 0
-832 834 0
826 832 -834 0
835 -834 0
-835 834 0
-826 -832 0
-828 836 0
-835 836 0
828 835 -836 0
837 -836 0
-837 836 0
-828 -835 0
838 -839 0
840 -841 0
840 -842 0
838 840 -843 0
-844 -843 0
844 843 0
-845 0
-838 846 0
-844 846 0
838 844 -846 0
847 -846 0
-847 846 0
-838 -844 0
-840 848 0
-847 848 0
840 847 -848 0
849 -848 0
-849 848 0
-840 -847 0
850 -851 0
852 -853 0
852 -854 0
850 852 -855 0
-856 -855 0
856 855 0
-857 0
-850 858 0
-856 858 0
850 856 -858 0
859 -858 0
-859 858 0
-850 -856 0
-852 860 0
-859 860 0
852 859 -860 0
861 -860 0
-861 860 0
-852 -859 0
862 -863 0
864 -865 0
864 -866 0
862 864 -867 0
-868 -867 0
868 867 0
-869 0
-862 870 0
-868 870 0
862 868 -870 0
871 -870 0
-871 870 0
-862 -868 0
-864 872 0
-871 872 0
864 871 -872 0
873 -872 0
-873 872 0
-864 -871 0
874 -875 0
876 -877 0
876 -878 0
874 876 -879 0
-880 -879 0
880 879 0
-881 0
-874 882 0
-880 882 0
874 880 -882 0
883 -882 0
-883 882 0
-874 -880 0
-876 884 0
-883 884 0
876 883 -884 0
885 -884 0
-885 884 0
-876 -883 0
886 -887 0
888 -889 0
888 -890 0
886 888 -891 0
-892 -891 0
892 891 0
-893 0
-886 894 0
-892 894 0
886 892 -894 0
895 -894 0
-895 894 0
-886 -892 0
-888 896 0
-895 896 0
888 895 -896 0
897 -896 0
-897 896 0
-888 -895 0
898 -899 0
900 -901 0
900 -902 0
898 900 -903 0
-904 -903 0
904 903 0
-905 0
-898 906 0
-904 906 0
898 904 -906 0
907 -906 0
-907 906 0
-898 -904 0
-900 908 0
-907 908 0
900 907 -908 0
909 -908 0
-909 908 0
-900 -907 0
910 -911 0
912 -913 0
912 -914 0
910 912 -915 0
-916 -915 0
916 915 0
-917 0
-910 918 0
-916 918 0
910 916 -918 0
919 -918 0
-919 918 0
-910 -916 0
-912 920 0
-919 920 0
912 919 -920 0
921 -920 0
-921 920 0
-912 -919 0
922 -923 0
924 -925 0
924 -926 0
922 924 -927 0
-928 -927 0
928 927 0
-929 0
-922 930 0
-928 930 0
922 928 -930 0
931 -930 0
-931 930 0
-922 -928 0
-924 932 0
-931 932 0
924 931 -932 0
933 -932 0
-933 932 0
-924 -931 0
934 -935 0
936 -937 0
936 -938 0
934 936 -939 0
-940 -939 0
940 939 0
-941 0
-934 942 0
-940 942 0
934 940 -942 0
943 -942 0
-943 942 0
-934 -940 0
-936 944 0
-943 944 0
936 943 -944 0
945 -944 0
-945 944 0
-936 -943 0
946 -947 0
948 -949 0
948 -950 0
946 948 -951 0
-952 -951 0
952 951 0
-953 0
-946 954 0
-952 954 0
946 952 -954 0
955 -954 0
-955 954 0
-946 -952 0
-948 956 0
-955 956 0
948 955 -956 0
957 -956 0
-957 956 0
-948 -955 0
958 -959 0
960 -961 0
960 -962 0
958 960 -963 0
-964 -963 0
964 963 0
-965 0
-958 966 0
-964 966 0
958 964 -966 0
967 -966 0
-967 966 0
-958 -964 0
-960 968 0
-967 968 0
960 967 -968 0
969 -968 0
-969 968 0
-960 -967 0
970 -971 0
972 -973 0
972 -974 0
970 972 -975 0
-976 -975 0
976 975 0
-977 0
-970 978 0
-976 978 0
970 976 -978 0
979 -978 0
-979 978 0
-970 -976 0
-972 980 0
-979 980 0
972 979 -980 0
981 -980 0
-981 980 0
-972 -979 0
982 -983 0
984 -985 0
984 -986 0
982 984 -987 0
-988 -987 0
988 987 0
-989 0
-982 990 0
-988 990 0
982 988 -990 0
991 -990 0
-991 990 0
-982 -988 0
-984 992 0
-991 992 0
984 991 -992 0
993 -992 0
-993 992 0
-984 -991 0
994 -995 0
996 -997 0
996 -998 0
994 996 -999 0
-1000 -999 0
1000 999 0
-1001 0
-994 1002 0
-1000 1002 0
994 1000 -1002 0
1003 -1002 0
-1003 1002 0
-994 -1000 0
-996 1004 0
-1003 1004 0
996 1003 -1004 0
1005 -1004 0
-1005 1004 0
-996 -1003 0
1006 -1007 0
1008 -1009 0
1008 -1010 0
1006 1008 -1011 0
-1012 -1011 0
1012 1011 0
-1013 0
-1006 1014 0
-1012 1014 0
1006 1012 -1014 0
1015 -1014 0
-1015 1014 0
-1006 -1012 0
-1008 1016 0
-1015 1016 0
1008 1015 -1016 0
1017 -1016 0
-1017 1016 0
-1008 -1015 0
1018 -1019 0
1020 -1021 0
1020 -1022 0
1018 1020 -1023 0
-1024 -1023 0
1024 1023 0
-1025 0
-1018 1026 0
-1024 1026 0
1018 1024 -1026 0
1027 -1026 0
-1027 1026 0
-1018 -1024 0
-1020 1028 0
-1027 1028 0
1020 1027 -1028 0
1029 -1028 0
-1029 1028 0
-1020 -1027 0
1030 -1031 0
1032 -1033 0
1032 -1034 0
1030 1032 -1035 0
-1036 -1035 0
1036 1035 0
-1037 0
-1030 1038 0
-1036 1038 0
1030 1036 -1038 0
1039 -1038 0
-1039 1038 0
-1030 -1036 0
-1032 1040 0
-1039 1040 0
1032 1039 -1040 0
1041 -1040 0
-1041 1040 0
-1032 -1039 0
1042 -1043 0
1044 -1045 0
1044 -1046 0
1042 1044 -1047 0
-1048 -1047 0
1048 1047 0
-1049 0
-1042 1050 0
-1048 1050 0
1042 1048 -1050 0
1051 -1050 0
-1051 1050 0
-1042 -1048 0
-1044 1052 0
-1051 1052 0
1044 1051 -1052 0
1053 -1052 0
-1053 1052 0
-1044 -1051 0
1054 1055 -1056 0
-1057 -1056 0
1057 1056 0
-1058 0
-1054 1059 0
-1057 1059 0
1054 1057 -1059 0
1060 -1059 0
-1060 1059 0
-1054 -1057 0
-1055 1061 0
-1060 1061 0
1055 1060 -1061 0
1062 -1061 0
-1062 1061 0
-1055 -1060 0
1063 1064 -1065 0
-1066 -1065 0
1066 1065 0
-1067 0
-1063 1068 0
-1066 1068 0
1063 1066 -1068 0
1069 -1068 0
-1069 1068 0
-1063 -1066 0
-1064 1070 0
-1069 1070 0
1064 1069 -1070 0
1071 -1070 0
-1071 1070 0
-1064 -1069 0
1072 -1073 0
1074 -1075 0
1074 -1076 0
1072 1074 -1077 0
-1078 -1077 0
1078 1077 0
-1079 0
-1072 1080 0
-1078 1080 0
1072 1078 -1080 0
1081 -1080 0
-1081 1080 0
-1072 -1078 0
-1074 1082 0
-1081 1082 0
1074 1081 -1082 0
1083 -1082 0
-1083 1082 0
-1074 -1081 0
1084 -1085 0
1086 -1087 0
1086 -1088 0
1084 1086 -1089 0
-1090 -1089 0
1090 1089 0
-1091 0
-1084 1092 0
-1090 1092 0
1084 1090 -1092 0
1093 -1092 0
-1093 1092 0
-1084 -1090 0
-1086 1094 0
-1093 1094 0
1086 1093 -1094 0
1095 -1094 0
-1095 1094 0
-1086 -1093 0
1096 -1097 0
1098 -1099 0
1098 -1100 0
1096 1098 -1101 0
-1102 -1101 0
1102 1101 0
-1103 0
-1096 1104 0
-1102 1104 0
1096 1102 -1104 0
1105 -1104 0
-1105 1104 0
-1096 -1102 0
-1098 1106 0
-1105 1106 0
1098 1105 -1106 0
1107 -1106 0
-1107 1106 0
-1098 -1105 0
1108 -1109 0
1110 -1111 0
1110 -1112 0
1108 1110 -1113 0
-1114 -1113 0
1114 1113 0
-1115 0
-1108 1116 0
-1114 1116 0
1108 1114 -1116 0
1117 -1116 0
-1117 1116 0
-1108 -1114 0
-1110 1118 0
-1117 1118 0
1110 1117 -1118 0
1119 -1118 0
-1119 1118 0
-1110 -1117 0
1120 -1121 0
1122 -1123 0
1122 -1124 0
1120 1122 -1125 0
-1126 -1125 0
1126 1125 0
-1127 0
-1120 1128 0
-1126 1128 0
1120 1126 -1128 0
1129 -1128 0
-1129 1128 0
-1120 -1126 0
-1122 1130 0
-1129 1130 0
1122 1129 -1130 0
1131 -1130 0
-1131 1130 0
-1122 -1129 0
1132 -1133 0
1134 -1135 0
1134 -1136 0
1132 1134 -1137 0
-1138 -1137 0
1138 1137 0
-1139 0
-1132 1140 0
-1138 1140 0
1132 1138 -1140 0
1141 -1140 0
-1141 1140 0
-1132 -1138 0
-1134 1142 0
-1141 1142 0
1134 1141 -1142 0
1143 -1142 0
-1143 1142 0
-1134 -1141 0
1144 -1145 0
1146 -1147 0
1146 -1148 0
1144 1146 -1149 0
-1150 -1149 0
1150 1149 0
-1151 0
-1144 1152 0
-1150 1152 0
1144 1150 -1152 0
1153 -1152 0
-1153 1152 0
-1144 -1150 0
-1146 1154 0
-1153 1154 0
1146 1153 -1154 0
1155 -1154 0
-1155 1154 0
-1146 -1153 0
1156 -1157 0
1158 -1159 0
1158 -1160 0
1156 1158 -1161 0
-1162 -1161 0
1162 1161 0
-1163 0
-1156 1164 0
-1162 1164 0
1156 1162 -1164 0
1165 -1164 0
-1165 1164 0
-1156 -1162 0
-1158 1166 0
-1165 1166 0
1158 1165 -1166 0
1167 -1166 0
-1167 1166 0
-1158 -1165 0
1168 -1169 0
1170 -1171 0
1170 -1172 0
1168 1170 -1173 0
-1174 -1173 0
1174 1173 0
-1175 0
-1168 1176 0
-1174 1176 0
1168 1174 -1176 0
1177 -1176 0
-1177 1176 0
-1168 -1174 0
-1170 1178 0
-1177 1178 0
1170 1177 -1178 0
1179 -1178 0
-1179 1178 0
-1170 -1177 0
1180 -1181 0
1182 -1183 0
1182 -1184 0
1180 1182 -1185 0
-1186 -1185 0
1186 1185 0
-1187 0
-1180 1188 0
-1186 1188 0
1180 1186 -1188 0
1189 -1188 0
-1189 1188 0
-1180 -1186 0
-1182 1190 0
-1189 1190 0
1182 1189 -1190 0
1191 -1190 0
-1191 1190 0
-1182 -1189 0
1192 -1193 0
1194 -1195 0
1194 -1196 0
1192 1194 -1197 0
-1198 -1197 0
1198 1197 0
-1199 0
-1192 1200 0
-1198 1200 0
1192 1198 -1200 0
1201 -1200 0
-1201 1200 0
-1192 -1198 0
-1194 1202 0
-1201 1202 0
1194 1201 -1202 0
1203 -1202 0
-1203 1202 0
-1194 -1201 0
1204 -1205 0
1206 -1207 0
1206 -1208 0
1204 1206 -1209 0
-1210 -1209 0
1210 1209 0
-1211 0
-1204 1212 0
-1210 1212 0
1204 1210 -1212 0
1213 -1212 0
-1213 1212 0
-1204 -1210 0
-1206 1214 0
-1213 1214 0
1206 1213 -1214 0
1215 -1214 0
-1215 1214 0
-1206 -1213 0
1216 -1217 0
1218 -1219 0
1218 -1220 0
1216 1218 -1221 0
-1222 -1221 0
1222 1221 0
-1223 0
-1216 1224 0
-1222 1224 0
1216 1222 -1224 0
1225 -1224 0
-1225 1224 0
-1216 -1222 0
-1218 1226 0
-1225 1226 0
1218 1225 -1226 0
1227 -1226 0
-1227 1226 0
-1218 -1225 0
1228 -1229 0
1230 -1231 0
1230 -1232 0
1228 1230 -1233 0
-1234 -1233 0
1234 1233 0
-1235 0
-1228 1236 0
-1234 1236 0
1228 1234 -1236 0
1237 -1236 0
-1237 1236 0
-1228 -1234 0
-1230 1238 0
-1237 1238 0
1230 1237 -1238 0
1239 -1238 0
-1239 1238 0
-1230 -1237 0
1240 -1241 0
1242 -1243 0
1242 -1244 0
1240 1242 -1245 0
-1246 -1245 0
1246 1245 0
-1247 0
-1240 1248 0
-1246 1248 0
1240 1246 -1248 0
1249 -1248 0
-1249 1248 0
-1240 -1246 0
-1242 1250 0
-1249 1250 0
1242 1249 -1250 0
1251 -1250 0
-1251 1250 0
-1242 -1249 0
1252 -1253 0
1254 -1255 0
1254 -1256 0
1252 1254 -1257 0
-1258 -1257 0
1258 1257 0
-1259 0
-1252 1260 0
-1258 1260 0
1252 1258 -1260 0
1261 -1260 0
-1261 1260 0
-1252 -1258 0
-1254 1262 0
-1261 1262 0
1254 1261 -1262 0
1263 -1262 0
-1263 1262 0
-1254 -1261 0
1264 -1265 0
1266 -1267 0
1266 -1268 0
1264 1266 -1269 0
-1270 -1269 0
1270 1269 0
-1271 0
-1264 1272 0
-1270 1272 0
1264 1270 -1272 0
1273 -1272 0
-1273 1272 0
-1264 -1270 0
-1266 1274 0
-1273 1274 0
1266 1273 -1274 0
1275 -1274 0
-1275 1274 0
-1266 -1273 0
1276 -1277 0
1278 -1279 0
1278 -1280 0
1276 1278 -1281 0
-1282 -1281 0
1282 1281 0
-1283 0
-1276 1284 0
-1282 1284 0
1276 1282 -1284 0
1285 -1284 0
-1285 1284 0
-1276 -1282 0
-1278 1286 0
-1285 1286 0
1278 1285 -1286 0
1287 -1286 0
-1287 1286 0
-1278 -1285 0
1288 -1289 0
1290 -1291 0
1290 -1292 0
1288 1290 -1293 0
-1294 -1293 0
1294 1293 0
-1295 0
-1288 1296 0
-1294 1296 0
1288 1294 -1296 0
1297 -1296 0
-1297 1296 0
-1288 -1294 0
-1290 1298 0
-1297 1298 0
1290 1297 -1298 0
1299 -1298 0
-1299 1298 0
-1290 -1297 0
1300 -1301 0
1302 -1303 0
1302 -1304 0
1300 1302 -1305 0
-1306 -1305 0
1306 1305 0
-1307 0
-1300 1308 0
-1306 1308 0
1300 1306 -1308 0
1309 -1308 0
-1309 1308 0
-1300 -1306 0
-1302 1310 0
-1309 1310 0
1302 1309 -1310 0
1311 -1310 0
-1311 1310 0
-1302 -1309 0
1312 -1313 0
1314 -1315 0
1314 -1316 0
1312 1314 -1317 0
-1318 -1317 0
1318 1317 0
-1319 0
-1312 1320 0
-1318 1320 0
1312 1318 -1320 0
1321 -1320 0
-1321 1320 0
-1312 -1318 0
-1314 1322 0
-1321 1322 0
1314 1321 -1322 0
1323 -1322 0
-1323 1322 0
-1314 -1321 0
1324 -1325 0
1326 -1327 0
1326 -1328 0
1324 1326 -1329 0
-1330 -1329 0
1330 1329 0
-1331 0
-1324 1332 0
-1330 1332 0
1324 1330 -1332 0
1333 -1332 0
-1333 1332 0
-1324 -1330 0
-1326 1334 0
-1333 1334 0
1326 1333 -1334 0
1335 -1334 0
-1335 1334 0
-1326 -1333 0
1336 -1337 0
1338 -1339 0
1338 -1340 0
1336 1338 -1341 0
-1342 -1341 0
1342 1341 0
-1343 0
-1336 1344 0
-1342 1344 0
1336 1342 -1344 0
1345 -1344 0
-1345 1344 0
-1336 -1342 0
-1338 1346 0
-1345 1346 0
1338 1345 -1346 0
1347 -1346 0
-1347 1346 0
-1338 -1345 0
1348 -1349 0
1350 -1351 0
1350 -1352 0
1348 1350 -1353 0
-1354 -1353 0
1354 1353 0
-1355 0
-1348 1356 0
-1354 1356 0
1348 1354 -1356 0
1357 -1356 0
-1357 1356 0
-1348 -1354 0
-1350 1358 0
-1357 1358 0
1350 1357 -1358 0
1359 -1358 0
-1359 1358 0
-1350 -1357 0
1360 1361 -1362 0
-1363 -1362 0
1363 1362 0
-1364 0
-1360 1365 0
-1363 1365 0
1360 1363 -1365 0
1366 -1365 0
-1366 1365 0
-1360 -1363 0
-1361 1367 0
-1366 1367 0
1361 1366 -1367 0
1368 -1367 0
-1368 1367 0
-1361 -1366 0
1369 0
-1370 0
1371 0
1372 0
-1373 0
1374 0
1375 0
-1376 0
-1377 0
-1378 0
-1379 0
1380 0
-1381 0
1382 0
1383 0
-1384 0
1385 0
1386 0
-1387 0
-1388 0
-1389 0
-1390 0
1391 0
-1392 0
1393 0
1394 0
-1395 0
1396 0
1397 0
-1398 0
-1399 0
-1400 0
-1401 0
1402 0
-1403 0
1404 0
1405 0
-1406 0
1407 0
1408 0
-1409 0
-1410 0
-1411 0
-1412 0
1413 0
-1414 0
1415 0
1416 0
-1417 0
1418 0
1419 0
-1420 0
1421 0
-1422 0
1423 0
1424 0
-1425 0
1426 0
1427 0
-1428 0
1429 1430 -1431 0
-1432 -1431 0
1432 1431 0
-1433 0
-1429 1434 0
-1432 1434 0
1429 1432 -1434 0
1435 -1434 0
-1435 1434 0
-1429 -1432 0
-1430 1436 0
-1435 1436 0
1430 1435 -1436 0
1437 -1436 0
-1437 1436 0
-1430 -1435 0
1438 -1439 0
1440 -1441 0
1440 -1442 0
1438 1440 -1443 0
-1444 -1443 0
1444 1443 0
-1445 0
-1438 1446 0
-1444 1446 0
1438 1444 -1446 0
1447 -1446 0
-1447 1446 0
-1438 -1444 0
-1440 1448 0
-1447 1448 0
1440 1447 -1448 0
1449 -1448 0
-1449 1448 0
-1440 -1447 0
1450 -1451 0
1452 -1453 0
1452 -1454 0
1450 1452 -1455 0
-1456 -1455 0
1456 1455 0
-1457 0
-1450 1458 0
-1456 1458 0
1450 1456 -1458 0
1459 -1458 0
-1459 1458 0
-1450 -1456 0
-1452 1460 0
-1459 1460 0
1452 1459 -1460 0
1461 -1460 0
-1461 1460 0
-1452 -1459 0
1462 -1463 0
1464 -1465 0
1464 -1466 0
1462 1464 -1467 0
-1468 -1467 0
1468 1467 0
-1469 0
-1462 1470 0
-1468 1470 0
1462 1468 -1470 0
1471 -1470 0
-1471 1470 0
-1462 -1468 0
-1464 1472 0
-1471 1472 0
1464 1471 -1472 0
1473 -1472 0
-1473 1472 0
-1464 -1471 0
1474 -1475 0
1476 -1477 0
1476 -1478 0
1474 1476 -1479 0
-1480 -1479 0
1480 1479 0
-1481 0
-1474 1482 0
-1480 1482 0
1474 1480 -1482 0
1483 -1482 0
-1483 1482 0
-1474 -1480 0
-1476 1484 0
-1483 1484 0
1476 1483 -1484 0
1485 -1484 0
-1485 1484 0
-1476 -1483 0
1486 1487 -1488 0
-1489 -1488 0
1489 1488 0
-1490 0
-1486 1491 0
-1489 1491 0
1486 1489 -1491 0
1492 -1491 0
-1492 1491 0
-1486 -1489 0
-1487 1493 0
-1492 1493 0
1487 1492 -1493 0
1494 -1493 0
-1494 1493 0
-1487 -1492 0
1495 1496 -1497 0
-1498 -1497 0
1498 1497 0
-1499 0
-1495 1500 0
-1498 1500 0
1495 1498 -1500 0
1501 -1500 0
-1501 1500 0
-1495 -1498 0
-1496 1502 0
-1501 1502 0
1496 1501 -1502 0
1503 -1502 0
-1503 1502 0
-1496 -1501 0
1504 -1505 0
1506 -1507 0
1506 -1508 0
1504 1506 -1509 0
-1510 -1509 0
1510 1509 0
-1511 0
-1504 1512 0
-1510 1512 0
1504 1510 -1512 0
1513 -1512 0
-1513 1512 0
-1504 -1510 0
-1506 1514 0
-1513 1514 0
1506 1513 -1514 0
1515 -1514 0
-1515 1514 0
-1506 -1513 0
1516 -1517 0
1518 -1519 0
1518 -1520 0
1516 1518 -1521 0
-1522 -1521 0
1522 1521 0
-1523 0
-1516 1524 0
-1522 1524 0
1516 1522 -1524 0
1525 -1524 0
-1525 1524 0
-1516 -1522 0
-1518 1526 0
-1525 1526 0
1518 1525 -1526 0
1527 -1526 0
-1527 1526 0
-1518 -1525 0
1528 -1529 0
1530 -1531 0
1530 -1532 0
1528 1530 -1533 0
-1534 -1533 0
1534 1533 0
-1535 0
-1528 1536 0
-1534 1536 0
1528 1534 -1536 0
1537 -1536 0
-1537 1536 0
-1528 -1534 0
-1530 1538 0
-1537 1538 0
1530 1537 -1538 0
1539 -1538 0
-1539 1538 0
-1530 -1537 0
1540 -1541 0
1542 -1543 0
1542 -1544 0
1540 1542 -1545 0
-1546 -1545 0
1546 1545 0
-1547 0
-1540 1548 0
-1546 1548 0
1540 1546 -1548 0
1549 -1548 0
-1549 1548 0
-1540 -1546 0
-1542 1550 0
-1549 1550 0
1542 1549 -1550 0
1551 -1550 0
-1551 1550 0
-1542 -1549 0
1552 1553 -1554 0
-1555 -1554 0
1555 1554 0
-1556 0
-1552 1557 0
-1555 1557 0
1552 1555 -1557 0
1558 -1557 0
-1558 1557 0
-1552 -1555 0
-1553 1559 0
-1558 1559 0
1553 1558 -1559 0
1560 -1559 0
-1560 1559 0
-1553 -1558 0
1561 1562 -1563 0
-1564 -1563 0
1564 1563 0
-1565 0
-1561 1566 0
-1564 1566 0
1561 1564 -1566 0
1567 -1566 0
-1567 1566 0
-1561 -1564 0
-1562 1568 0
-1567 1568 0
1562 1567 -1568 0
1569 -1568 0
-1569 1568 0
-1562 -1567 0
1570 -1571 0
1572 -1573 0
1572 -1574 0
1570 1572 -1575 0
-1576 -1575 0
1576 1575 0
-1577 0
-1570 1578 0
-1576 1578 0
1570 1576 -1578 0
1579 -1578 0
-1579 1578 0
-1570 -1576 0
-1572 1580 0
-1579 1580 0
1572 1579 -1580 0
1581 -1580 0
-1581 1580 0
-1572 -1579 0
1582 -1583 0
1584 -1585 0
1584 -1586 0
1582 1584 -1587 0
-1588 -1587 0
1588 1587 0
-1589 0
-1582 1590 0
-1588 1590 0
1582 1588 -1590 0
1591 -1590 0
-1591 1590 0
-1582 -1588 0
-1584 1592 0
-1591 1592 0
1584 1591 -1592 0
1593 -1592 0
-1593 1592 0
-1584 -1591 0
1594 -1595 0
1596 -1597 0
1596 -1598 0
1594 1596 -1599 0
-1600 -1599 0
1600 1599 0
-1601 0
-1594 1602 0
-1600 1602 0
1594 1600 -1602 0
1603 -1602 0
-1603 1602 0
-1594 -1600 0
-1596 1604 0
-1603 1604 0
1596 1603 -1604 0
1605 -1604 0
-1605 1604 0
-1596 -1603 0
1606 -1607 0
1608 -1609 0
1608 -1610 0
1606 1608 -1611 0
-1612 -1611 0
1612 1611 0
-1613 0
-1606 1614 0
-1612 1614 0
1606 1612 -1614 0
1615 -1614 0
-1615 1614 0
-1606 -1612 0
-1608 1616 0
-1615 1616 0
1608 1615 -1616 0
1617 -1616 0
-1617 1616 0
-1608 -1615 0
1618 1619 -1620 0
-1621 -1620 0
1621 1620 0
-1622 0
-1618 1623 0
-1621 1623 0
1618 1621 -1623 0
1624 -1623 0
-1624 1623 0
-1618 -1621 0
-1619 1625 0
-1624 1625 0
1619 1624 -1625 0
1626 -1625 0
-1626 1625 0
-1619 -1624 0
1627 1628 -1629 0
-1630 -1629 0
1630 1629 0
-1631 0
-1627 1632 0
-1630 1632 0
1627 1630 -1632 0
1633 -1632 0
-1633 1632 0
-1627 -1630 0
-1628 1634 0
-1633 1634 0
1628 1633 -1634 0
1635 -1634 0
-1635 1634 0
-1628 -1633 0
1636 -1637 0
1638 -1639 0
1638 -1640 0
1636 1638 -1641 0
-1642 -1641 0
1642 1641 0
-1643 0
-1636 1644 0
-1642 1644 0
1636 1642 -1644 0
1645 -1644 0
-1645 1644 0
-1636 -1642 0
-1638 1646 0
-1645 1646 0
1638 1645 -1646 0
1647 -1646 0
-1647 1646 0
-1638 -1645 0
1648 -1649 0
1650 -1651 0
1650 -1652 0
1648 1650 -1653 0
-1654 -1653 0
1654 1653 0
-1655 0
-1648 1656 0
-1654 1656 0
1648 1654 -1656 0
1657 -1656 0
-1657 1656 0
-1648 -1654 0
-1650 1658 0
-1657 1658 0
1650 1657 -1658 0
1659 -1658 0
-1659 1658 0
-1650 -1657 0
1660 -1661 0
1662 -1663 0
1662 -1664 0
1660 1662 -1665 0
-1666 -1665 0
1666 1665 0
-1667 0
-1660 1668 0
-1666 1668 0
1660 1666 -1668 0
1669 -1668 0
-1669 1668 0
-1660 -1666 0
-1662 1670 0
-1669 1670 0
1662 1669 -1670 0
1671 -1670 0
-1671 1670 0
-1662 -1669 0
1672 -1673 0
1674 -1675 0
1674 -1676 0
1672 1674 -1677 0
-1678 -1677 0
1678 1677 0
-1679 0
-1672 1680 0
-1678 1680 0
1672 1678 -1680 0
1681 -1680 0
-1681 1680 0
-1672 -1678 0
-1674 1682 0
-1681 1682 0
1674 1681 -1682 0
1683 -1682 0
-1683 1682 0
-1674 -1681 0
1684 1685 -1686 0
-1687 -1686 0
1687 1686 0
-1688 0
-1684 1689 0
-1687 1689 0
1684 1687 -1689 0
1690 -1689 0
-1690 1689 0
-1684 -1687 0
-1685 1691 0
-1690 1691 0
1685 1690 -1691 0
1692 -1691 0
-1692 1691 0
-1685 -1690 0
1693 1694 -1695 0
-1696 -1695 0
1696 1695 0
-1697 0
-1693 1698 0
-1696 1698 0
1693 1696 -1698 0
1699 -1698 0
-1699 1698 0
-1693 -1696 0
-1694 1700 0
-1699 1700 0
1694 1699 -1700 0
1701 -1700 0
-1701 1700 0
-1694 -1699 0
1702 -1703 0
1704 -1705 0
1704 -1706 0
1702 1704 -1707 0
-1708 -1707 0
1708 1707 0
-1709 0
-1702 1710 0
-1708 1710 0
1702 1708 -1710 0
1711 -1710 0
-1711 1710 0
-1702 -1708 0
-1704 1712 0
-1711 1712 0
1704 1711 -1712 0
1713 -1712 0
-1713 1712 0
-1704 -1711 0
1714 -1715 0
1716 -1717 0
1716 -1718 0
1714 1716 -1719 0
-1720 -1719 0
1720 1719 0
-1721 0
-1714 1722 0
-1720 1722 0
1714 1720 -1722 0
1723 -1722 0
-1723 1722 0
-1714 -1720 0
-1716 1724 0
-1723 1724 0
1716 1723 -1724 0
1725 -1724 0
-1725 1724 0
-1716 -1723 0
1726 -1727 0
1728 -1729 0
1728 -1730 0
1726 1728 -1731 0
-1732 -1731 0
1732 1731 0
-1733 0
-1726 1734 0
-1732 1734 0
1726 1732 -1734 0
1735 -1734 0
-1735 1734 0
-1726 -1732 0
-1728 1736 0
-1735 1736 0
1728 1735 -1736 0
1737 -1736 0
-1737 1736 0
-1728 -1735 0
1738 -1739 0
1740 -1741 0
1740 -1742 0
1738 1740 -1743 0
-1744 -1743 0
1744 1743 0
-1745 0
-1738 1746 0
-1744 1746 0
1738 1744 -1746 0
1747 -1746 0
-1747 1746 0
-1738 -1744 0
-1740 1748 0
-1747 1748 0
1740 1747 -1748 0
1749 -1748 0
-1749 1748 0
-1740 -1747 0
1750 1751 -1752 0
-1753 -1752 0
1753 1752 0
-1754 0
-1750 1755 0
-1753 1755 0
1750 1753 -1755 0
1756 -1755 0
-1756 1755 0
-1750 -1753 0
-1751 1757 0
-1756 1757 0
1751 1756 -1757 0
1758 -1757 0
-1758 1757 0
-1751 -1756 0
1759 0
-1760 0
1761 0
1762 0
-1763 0
1764 0
1765 0
-1766 0
-1767 0
-1768 0
-1769 0
1770 0
-1771 0
1772 0
1773 0
-1774 0
1775 0
1776 0
-1777 0
-1778 0
-1779 0
-1780 0
1781 0
-1782 0
1783 0
1784 0
-1785 0
1786 0
1787 0
-1788 0
-1789 0
-1790 0
-1791 0
1792 0
-1793 0
1794 0
1795 0
-1796 0
1797 0
1798 0
-1799 0
-1800 0
-1801 0
-1802 0
1803 0
-1804 0
1805 0
1806 0
-1807 0
1808 0
1809 0
-1810 0
1811 0
-1812 0
1813 0
1814 0
-1815 0
1816 0
1817 0
-1818 0
-1819 0
-1820 0
-1821 0
1822 0
-1823 0
1824 0
1825 0
-1826 0
1827 0
1828 0
-1829 0
-1830 0
-1831 0
-1832 0
1833 0
-1834 0
1835 0
1836 0
-1837 0
1838 0
1839 0
-1840 0
-1841 0
-1842 0
-1843 0
1844 0
-1845 0
1846 0
1847 0
-1848 0
1849 0
1850 0
-1851 0
1852 -1853 0
1854 -1855 0
1854 -1856 0
1852 1854 -1857 0
-1858 -1857 0
1858 1857 0
-1859 0
-1852 1860 0
-1858 1860 0
1852 1858 -1860 0
1861 -1860 0
-1861 1860 0
-1852 -1858 0
-1854 1862 0
-1861 1862 0
1854 1861 -1862 0
1863 -1862 0
-1863 1862 0
-1854 -1861 0
1864 -1865 0
1866 -1867 0
1866 -1868 0
1864 1866 -1869 0
-1870 -1869 0
1870 1869 0
-1871 0
-1864 1872 0
-1870 1872 0
1864 1870 -1872 0
1873 -1872 0
-1873 1872 0
-1864 -1870 0
-1866 1874 0
-1873 1874 0
1866 1873 -1874 0
1875 -1874 0
-1875 1874 0
-1866 -1873 0
1876 -1877 0
1878 -1879 0
1878 -1880 0
1876 1878 -1881 0
-1882 -1881 0
1882 1881 0
-1883 0
-1876 1884 0
-1882 1884 0
1876 1882 -1884 0
1885 -1884 0
-1885 1884 0
-1876 -1882 0
-1878 1886 0
-1885 1886 0
1878 1885 -1886 0
1887 -1886 0
-1887 1886 0
-1878 -1885 0
1888 -1889 0
1890 -1891 0
1890 -1892 0
1888 1890 -1893 0
-1894 -1893 0
1894 1893 0
-1895 0
-1888 1896 0
-1894 1896 0
1888 1894 -1896 0
1897 -1896 0
-1897 1896 0
-1888 -1894 0
-1890 1898 0
-1897 1898 0
1890 1897 -1898 0
1899 -1898 0
-1899 1898 0
-1890 -1897 0
1900 -1901 0
1902 -1903 0
1902 -1904 0
1900 1902 -1905 0
-1906 -1905 0
1906 1905 0
-1907 0
-1900 1908 0
-1906 1908 0
1900 1906 -1908 0
1909 -1908 0
-1909 1908 0
-1900 -1906 0
-1902 1910 0
-1909 1910 0
1902 1909 -1910 0
1911 -1910 0
-1911 1910 0
-1902 -1909 0
1912 -1913 0
1914 -1915 0
1914 -1916 0
1912 1914 -1917 0
-1918 -1917 0
1918 1917 0
-1919 0
-1912 1920 0
-1918 1920 0
1912 1918 -1920 0
1921 -1920 0
-1921 1920 0
-1912 -1918 0
-1914 1922 0
-1921 1922 0
1914 1921 -1922 0
1923 -1922 0
-1923 1922 0
-1914 -1921 0
1924 -1925 0
1926 -1927 0
1926 -1928 0
1924 1926 -1929 0
-1930 -1929 0
1930 1929 0
-1931 0
-1924 1932 0
-1930 1932 0
1924 1930 -1932 0
1933 -1932 0
-1933 1932 0
-1924 -1930 0
-1926 1934 0
-1933 1934 0
1926 1933 -1934 0
1935 -1934 0
-1935 1934 0
-1926 -1933 0
1936 -1937 0
1938 -1939 0
1938 -1940 0
1936 1938 -1941 0
-1942 -1941 0
1942 1941 0
-1943 0
-1936 1944 0
-1942 1944 0
1936 1942 -1944 0
1945 -1944 0
-1945 1944 0
-1936 -1942 0
-1938 1946 0
-1945 1946 0
1938 1945 -1946 0
1947 -1946 0
-1947 1946 0
-1938 -1945 0
1948 -1949 0
1950 -1951 0
1950 -1952 0
1948 1950 -1953 0
-1954 -1953 0
1954 1953 0
-1955 0
-1948 1956 0
-1954 1956 0
1948 1954 -1956 0
1957 -1956 0
-1957 1956 0
-1948 -1954 0
-1950 1958 0
-1957 1958 0
1950 1957 -1958 0
1959 -1958 0
-1959 1958 0
-1950 -1957 0
1960 -1961 0
1962 -1963 0
1962 -1964 0
1960 1962 -1965 0
-1966 -1965 0
1966 1965 0
-1967 0
-1960 1968 0
-1966 1968 0
1960 1966 -1968 0
1969 -1968 0
-1969 1968 0
-1960 -1966 0
-1962 1970 0
-1969 1970 0
1962 1969 -1970 0
1971 -1970 0
-1971 1970 0
-1962 -1969 0
1972 -1973 0
1974 -1975 0
1974 -1976 0
1972 1974 -1977 0
-1978 -1977 0
1978 1977 0
-1979 0
-1972 1980 0
-1978 1980 0
1972 1978 -1980 0
1981 -1980 0
-1981 1980 0
-1972 -1978 0
-1974 1982 0
-1981 1982 0
1974 1981 -1982 0
1983 -1982 0
-1983 1982 0
-1974 -1981 0
1984 -1985 0
1986 -1987 0
1986 -1988 0
1984 1986 -1989 0
-1990 -1989 0
1990 1989 0
-1991 0
-1984 1992 0
-1990 1992 0
1984 1990 -1992 0
1993 -1992 0
-1993 1992 0
-1984 -1990 0
-1986 1994 0
-1993 1994 0
1986 1993 -1994 0
1995 -1994 0
-1995 1994 0
-1986 -1993 0
1996 -1997 0
1998 -1999 0
1998 -2000 0
1996 1998 -2001 0
-2002 -2001 0
2002 2001 0
-2003 0
-1996 2004 0
-2002 2004 0
1996 2002 -2004 0
2005 -2004 0
-2005 2004 0
-1996 -2002 0
-1998 2006 0
-2005 2006 0
1998 2005 -2006 0
2007 -2006 0
-2007 2006 0
-1998 -2005 0
2008 -2009 0
2010 -2011 0
2010 -2012 0
2008 2010 -2013 0
-2014 -2013 0
2014 2013 0
-2015 0
-2008 2016 0
-2014 2016 0
2008 2014 -2016 0
2017 -2016 0
-2017 2016 0
-2008 -2014 0
-2010 2018 0
-2017 2018 0
2010 2017 -2018 0
2019 -2018 0
-2019 2018 0
-2010 -2017 0
2020 -2021 0
2022 -2023 0
2022 -2024 0
2020 2022 -2025 0
-2026 -2025 0
2026 2025 0
-2027 0
-2020 2028 0
-2026 2028 0
2020 2026 -2028 0
2029 -2028 0
-2029 2028 0
-2020 -2026 0
-2022 2030 0
-2029 2030 0
2022 2029 -2030 0
2031 -2030 0
-2031 2030 0
-2022 -2029 0
-2032 0
-2033 0
-2034 0
2035 0
-2036 0
2037 0
2038 0
-2039 0
2040 0
2041 0
-2042 0
-2043 0
-2044 0
-2045 0
2046 0
-2047 0
2048 0
2049 0
-2050 0
2051 0
2052 0
-2053 0
-2054 0
-2055 0
-2056 0
2057 0
-2058 0
2059 0
2060 0
-2061 0
2062 0
2063 0
-2064 0
-2065 0
-2066 0
-2067 0
2068 0
-2069 0
2070 0
2071 0
-2072 0
2073 0
2074 0
-2075 0
-2076 0
-2077 0
-2078 0
2079 0
-2080 0
2081 0
2082 0
-2083 0
2084 0
2085 0
-2086 0
-2087 0
-2088 0
-2089 0
2090 0
-2091 0
2092 0
2093 0
-2094 0
2095 0
2096 0
-2097 0
2098 -2099 0
2100 -2101 0
2100 -2102 0
2098 2100 -2103 0
-2104 -2103 0
2104 2103 0
-2105 0
-2098 2106 0
-2104 2106 0
2098 2104 -2106 0
2107 -2106 0
-2107 2106 0
-2098 -2104 0
-2100 2108 0
-2107 2108 0
2100 2107 -2108 0
2109 -2108 0
-2109 2108 0
-2100 -2107 0
-2110 0
-2111 0
-2112 0
2113 0
-2114 0
2115 0
2116 0
-2117 0
2118 0
2119 0
-2120 0
2121 -2122 0
2123 -2124 0
2123 -2125 0
2121 2123 -2126 0
-2127 -2126 0
2127 2126 0
-2128 0
-2121 2129 0
-2127 2129 0
2121 2127 -2129 0
2130 -2129 0
-2130 2129 0
-2121 -2127 0
-2123 2131 0
-2130 2131 0
2123 2130 -2131 0
2132 -2131 0
-2132 2131 0
-2123 -2130 0
2133 -2134 0
2135 -2136 0
2135 -2137 0
2133 2135 -2138 0
-2139 -2138 0
2139 2138 0
-2140 0
-2133 2141 0
-2139 2141 0
2133 2139 -2141 0
2142 -2141 0
-2142 2141 0
-2133 -2139 0
-2135 2143 0
-2142 2143 0
2135 2142 -2143 0
2144 -2143 0
-2144 2143 0
-2135 -2142 0
-2145 0
-2146 0
-2147 0
2148 0
-2149 0
2150 0
2151 0
-2152 0
2153 0
2154 0
-2155 0
2156 -2157 0
2158 -2159 0
2158 -2160 0
2156 2158 -2161 0
-2162 -2161 0
2162 2161 0
-2163 0
-2156 2164 0
-2162 2164 0
2156 2162 -2164 0
2165 -2164 0
-2165 2164 0
-2156 -2162 0
-2158 2166 0
-2165 2166 0
2158 2165 -2166 0
2167 -2166 0
-2167 2166 0
-2158 -2165 0
2168 -2169 0
2170 -2171 0
2170 -2172 0
2168 2170 -2173 0
-2174 -2173 0
2174 2173 0
-2175 0
-2168 2176 0
-2174 2176 0
2168 2174 -2176 0
2177 -2176 0
-2177 2176 0
-2168 -2174 0
-2170 2178 0
-2177 2178 0
2170 2177 -2178 0
2179 -2178 0
-2179 2178 0
-2170 -2177 0
-2180 0
-2181 0
-2182 0
2183 0
-2184 0
2185 0
2186 0
-2187 0
2188 0
2189 0
-2190 0
2191 -2192 0
2193 -2194 0
2193 -2195 0
2191 2193 -2196 0
-2197 -2196 0
2197 2196 0
-2198 0
-2191 2199 0
-2197 2199 0
2191 2197 -2199 0
2200 -2199 0
-2200 2199 0
-2191 -2197 0
-2193 2201 0
-2200 2201 0
2193 2200 -2201 0
2202 -2201 0
-2202 2201 0
-2193 -2200 0
2203 -2204 0
2205 -2206 0
2205 -2207 0
2203 2205 -2208 0
-2209 -2208 0
2209 2208 0
-2210 0
-2203 2211 0
-2209 2211 0
2203 2209 -2211 0
2212 -2211 0
-2212 2211 0
-2203 -2209 0
-2205 2213 0
-2212 2213 0
2205 2212 -2213 0
2214 -2213 0
-2214 2213 0
-2205 -2212 0
-2215 0
-2216 0
-2217 0
2218 0
-2219 0
2220 0
2221 0
-2222 0
2223 0
2224 0
-2225 0
2226 -2227 0
2228 -2229 0
2228 -2230 0
2226 2228 -2231 0
-2232 -2231 0
2232 2231 0
-2233 0
-2226 2234 0
-2232 2234 0
2226 2232 -2234 0
2235 -2234 0
-2235 2234 0
-2226 -2232 0
-2228 2236 0
-2235 2236 0
2228 2235 -2236 0
2237 -2236 0
-2237 2236 0
-2228 -2235 0
2238 -2239 0
2240 -2241 0
2240 -2242 0
2238 2240 -2243 0
-2244 -2243 0
2244 2243 0
-2245 0
-2238 2246 0
-2244 2246 0
2238 2244 -2246 0
2247 -2246 0
-2247 2246 0
-2238 -2244 0
-2240 2248 0
-2247 2248 0
2240 2247 -2248 0
2249 -2248 0
-2249 2248 0
-2240 -2247 0
-2250 0
-2251 0
-2252 0
2253 0
-2254 0
2255 0
2256 0
-2257 0
2258 0
2259 0
-2260 0
2261 -2262 0
2263 -2264 0
2263 -2265 0
2261 2263 -2266 0
-2267 -2266 0
2267 2266 0
-2268 0
-2261 2269 0
-2267 2269 0
2261 2267 -2269 0
2270 -2269 0
-2270 2269 0
-2261 -2267 0
-2263 2271 0
-2270 2271 0
2263 2270 -2271 0
2272 -2271 0
-2272 2271 0
-2263 -2270 0
-2273 0
-2274 0
-2275 0
2276 0
-2277 0
2278 0
2279 0
-2280 0
2281 0
2282 0
-2283 0
-2284 0
-2285 0
-2286 0
2287 0
-2288 0
2289 0
2290 0
-2291 0
2292 0
2293 0
-2294 0
-2295 0
-2296 0
-2297 0
2298 0
-2299 0
2300 0
2301 0
-2302 0
2303 0
2304 0
-2305 0
-2306 0
-2307 0
-2308 0
-2309 0
2310 0
-2311 0
2312 0
2313 0
-2314 0
2315 0
2316 0
-2317 0
-2318 0
-2319 0
-2320 0
-2321 0
2322 0
-2323 0
2324 0
2325 0
-2326 0
2327 0
2328 0
-2329 0
-2330 0
-2331 0
-2332 0
-2333 0
2334 0
-2335 0
2336 0
2337 0
-2338 0
2339 0
2340 0
-2341 0
-2342 0
-2343 0
-2344 0
-2345 0
2346 0
-2347 0
2348 0
2349 0
-2350 0
2351 0
2352 0
-2353 0
2354 -2355 0
2356 -2357 0
2356 -2358 0
2354 2356 -2359 0
-2360 -2359 0
2360 2359 0
-2361 0
-2354 2362 0
-2360 2362 0
2354 2360 -2362 0
2363 -2362 0
-2363 2362 0
-2354 -2360 0
-2356 2364 0
-2363 2364 0
2356 2363 -2364 0
2365 -2364 0
-2365 2364 0
-2356 -2363 0
2366 -2367 0
2368 -2369 0
2368 -2370 0
2366 2368 -2371 0
-2372 -2371 0
2372 2371 0
-2373 0
-2366 2374 0
-2372 2374 0
2366 2372 -2374 0
2375 -2374 0
-2375 2374 0
-2366 -2372 0
-2368 2376 0
-2375 2376 0
2368 2375 -2376 0
2377 -2376 0
-2377 2376 0
-2368 -2375 0
-2378 0
-2379 0
-2380 0
-2381 0
2382 0
-2383 0
2384 0
2385 0
-2386 0
2387 0
2388 0
-2389 0
2390 -2391 0
2392 -2393 0
2392 -2394 0
2390 2392 -2395 0
-2396 -2395 0
2396 2395 0
-2397 0
-2390 2398 0
-2396 2398 0
2390 2396 -2398 0
2399 -2398 0
-2399 2398 0
-2390 -2396 0
-2392 2400 0
-2399 2400 0
2392 2399 -2400 0
2401 -2400 0
-2401 2400 0
-2392 -2399 0
2402 -2403 0
2404 -2405 0
2404 -2406 0
2402 2404 -2407 0
-2408 -2407 0
2408 2407 0
-2409 0
-2402 2410 0
-2408 2410 0
2402 2408 -2410 0
2411 -2410 0
-2411 2410 0
-2402 -2408 0
-2404 2412 0
-2411 2412 0
2404 2411 -2412 0
2413 -2412 0
-2413 2412 0
-2404 -2411 0
-2414 0
-2415 0
-2416 0
-2417 0
2418 0
-2419 0
2420 0
2421 0
-2422 0
2423 0
2424 0
-2425 0
2426 -2427 0
2428 -2429 0
2428 -2430 0
2426 2428 -2431 0
-2432 -2431 0
2432 2431 0
-2433 0
-2426 2434 0
-2432 2434 0
2426 2432 -2434 0
2435 -2434 0
-2435 2434 0
-2426 -2432 0
-2428 2436 0
-2435 2436 0
2428 2435 -2436 0
2437 -2436 0
-2437 2436 0
-2428 -2435 0
-2438 0
-2439 0
-2440 0
-2441 0
2442 0
-2443 0
2444 0
2445 0
-2446 0
2447 0
2448 0
-2449 0
-2450 0
-2451 0
-2452 0
-2453 0
2454 0
-2455 0
2456 0
2457 0
-2458 0
2459 0
2460 0
-2461 0
2462 -2463 0
2464 -2465 0
2464 -2466 0
2462 2464 -2467 0
-2468 -2467 0
2468 2467 0
-2469 0
-2462 2470 0
-2468 2470 0
2462 2468 -2470 0
2471 -2470 0
-2471 2470 0
-2462 -2468 0
-2464 2472 0
-2471 2472 0
2464 2471 -2472 0
2473 -2472 0
-2473 2472 0
-2464 -2471 0
2474 -2475 0
2476 -2477 0
2476 -2478 0
2474 2476 -2479 0
-2480 -2479 0
2480 2479 0
-2481 0
-2474 2482 0
-2480 2482 0
2474 2480 -2482 0
2483 -2482 0
-2483 2482 0
-2474 -2480 0
-2476 2484 0
-2483 2484 0
2476 2483 -2484 0
2485 -2484 0
-2485 2484 0
-2476 -2483 0
-2486 0
-2487 0
-2488 0
-2489 0
2490 0
-2491 0
2492 0
2493 0
-2494 0
2495 0
2496 0
-2497 0
2498 -2499 0
2500 -2501 0
2500 -2502 0
2498 2500 -2503 0
-2504 -2503 0
2504 2503 0
-2505 0
-2498 2506 0
-2504 2506 0
2498 2504 -2506 0
2507 -2506 0
-2507 2506 0
-2498 -2504 0
-2500 2508 0
-2507 2508 0
2500 2507 -2508 0
2509 -2508 0
-2509 2508 0
-2500 -2507 0
2510 -2511 0
2512 -2513 0
2512 -2514 0
2510 2512 -2515 0
-2516 -2515 0
2516 2515 0
-2517 0
-2510 2518 0
-2516 2518 0
2510 2516 -2518 0
2519 -2518 0
-2519 2518 0
-2510 -2516 0
-2512 2520 0
-2519 2520 0
2512 2519 -2520 0
2521 -2520 0
-2521 2520 0
-2512 -2519 0
-2522 0
-2523 0
-2524 0
-2525 0
2526 0
-2527 0
2528 0
2529 0
-2530 0
2531 0
2532 0
-2533 0
-2534 0
-2535 0
-2536 0
-2537 0
2538 0
-2539 0
2540 0
2541 0
-2542 0
2543 0
2544 0
-2545 0
-2546 0
-2547 0
-2548 0
-2549 0
2550 0
-2551 0
2552 0
2553 0
-2554 0
2555 0
2556 0
-2557 0
-2558 0
-2559 0
2560 0
-2561 0
2562 0
2563 0
-2564 0
2565 0
2566 0
-2567 0
2568 -2569 0
2570 -2571 0
2568 2570 -2572 0
-2573 -2572 0
2573 2572 0
-2574 0
-2568 2575 0
-2573 2575 0
2568 2573 -2575 0
2576 -2575 0
-2576 2575 0
-2568 -2573 0
-2570 2577 0
-2576 2577 0
2570 2576 -2577 0
2578 -2577 0
-2578 2577 0
-2570 -2576 0
2579 -2580 0
2581 -2582 0
2579 2581 -2583 0
-2584 -2583 0
2584 2583 0
-2585 0
-2579 2586 0
-2584 2586 0
2579 2584 -2586 0
2587 -2586 0
-2587 2586 0
-2579 -2584 0
-2581 2588 0
-2587 2588 0
2581 2587 -2588 0
2589 -2588 0
-2589 2588 0
-2581 -2587 0
2590 -2591 0
2592 -2593 0
2590 2592 -2594 0
-2595 -2594 0
2595 2594 0
-2596 0
-2590 2597 0
-2595 2597 0
2590 2595 -2597 0
2598 -2597 0
-2598 2597 0
-2590 -2595 0
-2592 2599 0
-2598 2599 0
2592 2598 -2599 0
2600 -2599 0
-2600 2599 0
-2592 -2598 0
2601 -2602 0
2603 -2604 0
2601 2603 -2605 0
-2606 -2605 0
2606 2605 0
-2607 0
-2601 2608 0
-2606 2608 0
2601 2606 -2608 0
2609 -2608 0
-2609 2608 0
-2601 -2606 0
-2603 2610 0
-2609 2610 0
2603 2609 -2610 0
2611 -2610 0
-2611 2610 0
-2603 -2609 0
2612 -2613 0
2614 -2615 0
2612 2614 -2616 0
-2617 -2616 0
2617 2616 0
-2618 0
-2612 2619 0
-2617 2619 0
2612 2617 -2619 0
2620 -2619 0
-2620 2619 0
-2612 -2617 0
-2614 2621 0
-2620 2621 0
2614 2620 -2621 0
2622 -2621 0
-2622 2621 0
-2614 -2620 0
-2623 0
-2624 0
2625 0
-2626 0
2627 0
2628 0
-2629 0
2630 0
2631 0
-2632 0
-2633 0
-2634 0
2635 0
-2636 0
2637 0
2638 0
-2639 0
2640 0
2641 0
-2642 0
2643 -2644 0
2645 -2646 0
2643 2645 -2647 0
-2648 -2647 0
2648 2647 0
-2649 0
-2643 2650 0
-2648 2650 0
2643 2648 -2650 0
2651 -2650 0
-2651 2650 0
-2643 -2648 0
-2645 2652 0
-2651 2652 0
2645 2651 -2652 0
2653 -2652 0
-2653 2652 0
-2645 -2651 0
2654 -2655 0
2656 -2657 0
2654 2656 -2658 0
-2659 -2658 0
2659 2658 0
-2660 0
-2654 2661 0
-2659 2661 0
2654 2659 -2661 0
2662 -2661 0
-2662 2661 0
-2654 -2659 0
-2656 2663 0
-2662 2663 0
2656 2662 -2663 0
2664 -2663 0
-2664 2663 0
-2656 -2662 0
2665 -2666 0
2667 -2668 0
2665 2667 -2669 0
-2670 -2669 0
2670 2669 0
-2671 0
-2665 2672 0
-2670 2672 0
2665 2670 -2672 0
2673 -2672 0
-2673 2672 0
-2665 -2670 0
-2667 2674 0
-2673 2674 0
2667 2673 -2674 0
2675 -2674 0
-2675 2674 0
-2667 -2673 0
2676 -2677 0
2678 -2679 0
2676 2678 -2680 0
-2681 -2680 0
2681 2680 0
-2682 0
-2676 2683 0
-2681 2683 0
2676 2681 -2683 0
2684 -2683 0
-2684 2683 0
-2676 -2681 0
-2678 2685 0
-2684 2685 0
2678 2684 -2685 0
2686 -2685 0
-2686 2685 0
-2678 -2684 0
2687 -2688 0
2689 -2690 0
2687 2689 -2691 0
-2692 -2691 0
2692 2691 0
-2693 0
-2687 2694 0
-2692 2694 0
2687 2692 -2694 0
2695 -2694 0
-2695 2694 0
-2687 -2692 0
-2689 2696 0
-2695 2696 0
2689 2695 -2696 0
2697 -2696 0
-2697 2696 0
-2689 -2695 0
-2698 0
-2699 0
2700 0
-2701 0
2702 0
2703 0
-2704 0
2705 0
2706 0
-2707 0
-2708 0
-2709 0
2710 0
-2711 0
2712 0
2713 0
-2714 0
2715 0
2716 0
-2717 0
2718 -2719 0
2720 -2721 0
2718 2720 -2722 0
-2723 -2722 0
2723 2722 0
-2724 0
-2718 2725 0
-2723 2725 0
2718 2723 -2725 0
2726 -2725 0
-2726 2725 0
-2718 -2723 0
-2720 2727 0
-2726 2727 0
2720 2726 -2727 0
2728 -2727 0
-2728 2727 0
-2720 -2726 0
2729 -2730 0
2731 -2732 0
2729 2731 -2733 0
-2734 -2733 0
2734 2733 0
-2735 0
-2729 2736 0
-2734 2736 0
2729 2734 -2736 0
2737 -2736 0
-2737 2736 0
-2729 -2734 0
-2731 2738 0
-2737 2738 0
2731 2737 -2738 0
2739 -2738 0
-2739 2738 0
-2731 -2737 0
2740 -2741 0
2742 -2743 0
2740 2742 -2744 0
-2745 -2744 0
2745 2744 0
-2746 0
-2740 2747 0
-2745 2747 0
2740 2745 -2747 0
2748 -2747 0
-2748 2747 0
-2740 -2745 0
-2742 2749 0
-2748 2749 0
2742 2748 -2749 0
2750 -2749 0
-2750 2749 0
-2742 -2748 0
2751 -2752 0
2753 -2754 0
2751 2753 -2755 0
-2756 -2755 0
2756 2755 0
-2757 0
-2751 2758 0
-2756 2758 0
2751 2756 -2758 0
2759 -2758 0
-2759 2758 0
-2751 -2756 0
-2753 2760 0
-2759 2760 0
2753 2759 -2760 0
2761 -2760 0
-2761 2760 0
-2753 -2759 0
2762 -2763 0
2764 -2765 0
2762 2764 -2766 0
-2767 -2766 0
2767 2766 0
-2768 0
-2762 2769 0
-2767 2769 0
2762 2767 -2769 0
2770 -2769 0
-2770 2769 0
-2762 -2767 0
-2764 2771 0
-2770 2771 0
2764 2770 -2771 0
2772 -2771 0
-2772 2771 0
-2764 -2770 0
-2773 0
-2774 0
2775 0
-2776 0
2777 0
2778 0
-2779 0
2780 0
2781 0
-2782 0
-2783 0
-2784 0
-2785 0
-2786 0
-2787 0
-2788 0
-2789 0
-2790 0
-2791 0
-2792 0
-9 2793 0
2065 2793 0
2307 2793 0
9 -2065 -2307 -2793 0
9 2794 0
-2065 2794 0
2307 2794 0
-9 2065 -2307 -2794 0
9 2795 0
2065 2795 0
-2307 2795 0
-9 -2065 2307 -2795 0
2796 0
2797 0
-9 -2793 -2794 -2795 0
9 -2065 -2793 -2794 -2795 0
9 -2307 -2793 -2794 -2795 0
-9 -2065 -2793 -2794 -2795 0
-2065 -2793 -2794 -2795 0
-2065 -2307 -2793 -2794 -2795 0
-9 -2307 -2793 -2794 -2795 0
-2307 -2793 -2794 -2795 0
-10 2798 0
2066 2798 0
2308 2798 0
10 -2066 -2308 -2798 0
10 2799 0
-2066 2799 0
2308 2799 0
-10 2066 -2308 -2799 0
10 2800 0
2066 2800 0
-2308 2800 0
-10 -2066 2308 -2800 0
2801 0
2802 0
-10 -2798 -2799 -2800 0
10 -2066 -2798 -2799 -2800 0
10 -2308 -2798 -2799 -2800 0
-10 -2066 -2798 -2799 -2800 0
-2066 -2798 -2799 -2800 0
-2066 -2308 -2798 -2799 -2800 0
-10 -2308 -2798 -2799 -2800 0
-2308 -2798 -2799 -2800 0
-11 2803 0
2067 2803 0
2309 2803 0
11 -2067 -2309 -2803 0
11 2804 0
-2067 2804 0
2309 2804 0
-11 2067 -2309 -2804 0
11 2805 0
2067 2805 0
-2309 2805 0
-11 -2067 2309 -2805 0
2806 0
2807 0
-11 -2803 -2804 -2805 0
11 -2067 -2803 -2804 -2805 0
11 -2309 -2803 -2804 -2805 0
-11 -2067 -2803 -2804 -2805 0
-2067 -2803 -2804 -2805 0
-2067 -2309 -2803 -2804 -2805 0
-11 -2309 -2803 -2804 -2805 0
-2309 -2803 -2804 -2805 0
-2808 0
-2809 0
-2810 0
-2811 0
9 -20 0
-9 20 0
21 -10 0
10 -21 0
22 -11 0
11 -22 0
-2812 0
-2813 0
-2814 0
-2815 0
-20 2816 0
-31 2816 0
2076 2816 0
2319 2816 0
20 31 -2076 -2319 -2816 0
-20 2817 0
31 2817 0
-2076 2817 0
2319 2817 0
20 -31 2076 -2319 -2817 0
-20 2818 0
31 2818 0
2076 2818 0
-2319 2818 0
20 -31 -2076 2319 -2818 0
20 2819 0
-31 2819 0
-2076 2819 0
2319 2819 0
-20 31 2076 -2319 -2819 0
20 2820 0
-31 2820 0
2076 2820 0
-2319 2820 0
-20 31 -2076 2319 -2820 0
20 -31 -2816 -2817 -2818 -2819 -2820 0
20 -2076 -2816 -2817 -2818 -2819 -2820 0
20 -2319 -2816 -2817 -2818 -2819 -2820 0
-20 31 -2816 -2817 -2818 -2819 -2820 0
31 -2076 -2816 -2817 -2818 -2819 -2820 0
31 -2319 -2816 -2817 -2818 -2819 -2820 0
-20 -2076 -2816 -2817 -2818 -2819 -2820 0
-31 -2076 -2816 -2817 -2818 -2819 -2820 0
-2076 -2816 -2817 -2818 -2819 -2820 0
-2076 -2319 -2816 -2817 -2818 -2819 -2820 0
-20 -2319 -2816 -2817 -2818 -2819 -2820 0
-31 -2319 -2816 -2817 -2818 -2819 -2820 0
-2319 -2816 -2817 -2818 -2819 -2820 0
-21 2821 0
-32 2821 0
2077 2821 0
2320 2821 0
21 32 -2077 -2320 -2821 0
-21 2822 0
32 2822 0
-2077 2822 0
2320 2822 0
21 -32 2077 -2320 -2822 0
-21 2823 0
32 2823 0
2077 2823 0
-2320 2823 0
21 -32 -2077 2320 -2823 0
21 2824 0
-32 2824 0
-2077 2824 0
2320 2824 0
-21 32 2077 -2320 -2824 0
21 2825 0
-32 2825 0
2077 2825 0
-2320 2825 0
-21 32 -2077 2320 -2825 0
21 -32 -2821 -2822 -2823 -2824 -2825 0
21 -2077 -2821 -2822 -2823 -2824 -2825 0
21 -2320 -2821 -2822 -2823 -2824 -2825 0
-21 32 -2821 -2822 -2823 -2824 -2825 0
32 -2077 -2821 -2822 -2823 -2824 -2825 0
32 -2320 -2821 -2822 -2823 -2824 -2825 0
-21 -2077 -2821 -2822 -2823 -2824 -2825 0
-32 -2077 -2821 -2822 -2823 -2824 -2825 0
-2077 -2821 -2822 -2823 -2824 -2825 0
-2077 -2320 -2821 -2822 -2823 -2824 -2825 0
-21 -2320 -2821 -2822 -2823 -2824 -2825 0
-32 -2320 -2821 -2822 -2823 -2824 -2825 0
-2320 -2821 -2822 -2823 -2824 -2825 0
-22 2826 0
-33 2826 0
2078 2826 0
2321 2826 0
22 33 -2078 -2321 -2826 0
-22 2827 0
33 2827 0
-2078 2827 0
2321 2827 0
22 -33 2078 -2321 -2827 0
-22 2828 0
33 2828 0
2078 2828 0
-2321 2828 0
22 -33 -2078 2321 -2828 0
22 2829 0
-33 2829 0
-2078 2829 0
2321 2829 0
-22 33 2078 -2321 -2829 0
22 2830 0
-33 2830 0
2078 2830 0
-2321 2830 0
-22 33 -2078 2321 -2830 0
22 -33 -2826 -2827 -2828 -2829 -2830 0
22 -2078 -2826 -2827 -2828 -2829 -2830 0
22 -2321 -2826 -2827 -2828 -2829 -2830 0
-22 33 -2826 -2827 -2828 -2829 -2830 0
33 -2078 -2826 -2827 -2828 -2829 -2830 0
33 -2321 -2826 -2827 -2828 -2829 -2830 0
-22 -2078 -2826 -2827 -2828 -2829 -2830 0
-33 -2078 -2826 -2827 -2828 -2829 -2830 0
-2078 -2826 -2827 -2828 -2829 -2830 0
-2078 -2321 -2826 -2827 -2828 -2829 -2830 0
-22 -2321 -2826 -2827 -2828 -2829 -2830 0
-33 -2321 -2826 -2827 -2828 -2829 -2830 0
-2321 -2826 -2827 -2828 -2829 -2830 0
-2831 0
-2832 0
-2833 0
-2834 0
31 -42 0
-31 42 0
43 -32 0
32 -43 0
44 -33 0
33 -44 0
-2835 0
-2836 0
-2837 0
-2838 0
-42 2839 0
2087 2839 0
2331 2839 0
42 -2087 -2331 -2839 0
2840 0
2841 0
42 2842 0
-2087 2842 0
2331 2842 0
-42 2087 -2331 -2842 0
42 2843 0
2087 2843 0
-2331 2843 0
-42 -2087 2331 -2843 0
42 -2087 -2839 -2842 -2843 0
42 -2331 -2839 -2842 -2843 0
-42 -2839 -2842 -2843 0
-42 -2087 -2839 -2842 -2843 0
-2087 -2839 -2842 -2843 0
-2087 -2331 -2839 -2842 -2843 0
-42 -2331 -2839 -2842 -2843 0
-2331 -2839 -2842 -2843 0
-43 2844 0
2088 2844 0
2332 2844 0
43 -2088 -2332 -2844 0
2845 0
2846 0
43 2847 0
-2088 2847 0
2332 2847 0
-43 2088 -2332 -2847 0
43 2848 0
2088 2848 0
-2332 2848 0
-43 -2088 2332 -2848 0
43 -2088 -2844 -2847 -2848 0
43 -2332 -2844 -2847 -2848 0
-43 -2844 -2847 -2848 0
-43 -2088 -2844 -2847 -2848 0
-2088 -2844 -2847 -2848 0
-2088 -2332 -2844 -2847 -2848 0
-43 -2332 -2844 -2847 -2848 0
-2332 -2844 -2847 -2848 0
-44 2849 0
2089 2849 0
2333 2849 0
44 -2089 -2333 -2849 0
2850 0
2851 0
44 2852 0
-2089 2852 0
2333 2852 0
-44 2089 -2333 -2852 0
44 2853 0
2089 2853 0
-2333 2853 0
-44 -2089 2333 -2853 0
44 -2089 -2849 -2852 -2853 0
44 -2333 -2849 -2852 -2853 0
-44 -2849 -2852 -2853 0
-44 -2089 -2849 -2852 -2853 0
-2089 -2849 -2852 -2853 0
-2089 -2333 -2849 -2852 -2853 0
-44 -2333 -2849 -2852 -2853 0
-2333 -2849 -2852 -2853 0
-2854 0
-2855 0
-2856 0
-2857 0
-2858 0
-2859 0
2860 -61 0
61 -2860 0
-62 2861 0
-2860 2861 0
62 2860 -2861 0
2862 -2861 0
2861 -2862 0
-62 -2860 0
-2863 0
-2864 0
-2865 0
-61 2866 0
-70 2866 0
-2098 2866 0
61 70 2098 -2866 0
2867 -2866 0
-2867 2866 0
-62 2868 0
-72 2868 0
-2100 2868 0
-2867 2868 0
62 72 2100 2867 -2868 0
2869 -2868 0
2868 -2869 0
-62 -2867 0
-72 -2867 0
-2100 -2867 0
-71 2870 0
2099 2870 0
2343 2870 0
71 -2099 -2343 -2870 0
71 2871 0
-2099 2871 0
2343 2871 0
-71 2099 -2343 -2871 0
71 2872 0
2099 2872 0
-2343 2872 0
-71 -2099 2343 -2872 0
2873 0
2874 0
-71 -2870 -2871 -2872 0
71 -2099 -2870 -2871 -2872 0
71 -2343 -2870 -2871 -2872 0
-71 -2099 -2870 -2871 -2872 0
-2099 -2870 -2871 -2872 0
-2099 -2343 -2870 -2871 -2872 0
-71 -2343 -2870 -2871 -2872 0
-2343 -2870 -2871 -2872 0
-73 2875 0
2101 2875 0
2344 2875 0
73 -2101 -2344 -2875 0
73 2876 0
-2101 2876 0
2344 2876 0
-73 2101 -2344 -2876 0
73 2877 0
2101 2877 0
-2344 2877 0
-73 -2101 2344 -2877 0
2878 0
2879 0
-73 -2875 -2876 -2877 0
73 -2101 -2875 -2876 -2877 0
73 -2344 -2875 -2876 -2877 0
-73 -2101 -2875 -2876 -2877 0
-2101 -2875 -2876 -2877 0
-2101 -2344 -2875 -2876 -2877 0
-73 -2344 -2875 -2876 -2877 0
-2344 -2875 -2876 -2877 0
-74 2880 0
2102 2880 0
2345 2880 0
74 -2102 -2345 -2880 0
74 2881 0
-2102 2881 0
2345 2881 0
-74 2102 -2345 -2881 0
74 2882 0
2102 2882 0
-2345 2882 0
-74 -2102 2345 -2882 0
2883 0
2884 0
-74 -2880 -2881 -2882 0
74 -2102 -2880 -2881 -2882 0
74 -2345 -2880 -2881 -2882 0
-74 -2102 -2880 -2881 -2882 0
-2102 -2880 -2881 -2882 0
-2102 -2345 -2880 -2881 -2882 0
-74 -2345 -2880 -2881 -2882 0
-2345 -2880 -2881 -2882 0
-70 2885 0
-82 2885 0
70 82 -2885 0
2886 -2885 0
-2886 2885 0
-72 2887 0
-84 2887 0
-2886 2887 0
72 84 2886 -2887 0
2888 -2887 0
2887 -2888 0
-72 -2886 0
-84 -2886 0
71 -83 0
-71 83 0
85 -73 0
73 -85 0
86 -74 0
74 -86 0
-82 2889 0
-94 2889 0
-2354 2889 0
82 94 2354 -2889 0
2890 -2889 0
-2890 2889 0
-84 2891 0
-96 2891 0
-2356 2891 0
-2890 2891 0
84 96 2356 2890 -2891 0
2892 -2891 0
2891 -2892 0
-84 -2890 0
-96 -2890 0
-2356 -2890 0
-83 2893 0
-95 2893 0
2110 2893 0
2355 2893 0
83 95 -2110 -2355 -2893 0
-83 2894 0
95 2894 0
-2110 2894 0
2355 2894 0
83 -95 2110 -2355 -2894 0
-83 2895 0
95 2895 0
2110 2895 0
-2355 2895 0
83 -95 -2110 2355 -2895 0
83 2896 0
-95 2896 0
-2110 2896 0
2355 2896 0
-83 95 2110 -2355 -2896 0
83 2897 0
-95 2897 0
2110 2897 0
-2355 2897 0
-83 95 -2110 2355 -2897 0
83 -95 -2893 -2894 -2895 -2896 -2897 0
83 -2110 -2893 -2894 -2895 -2896 -2897 0
83 -2355 -2893 -2894 -2895 -2896 -2897 0
-83 95 -2893 -2894 -2895 -2896 -2897 0
95 -2110 -2893 -2894 -2895 -2896 -2897 0
95 -2355 -2893 -2894 -2895 -2896 -2897 0
-83 -2110 -2893 -2894 -2895 -2896 -2897 0
-95 -2110 -2893 -2894 -2895 -2896 -2897 0
-2110 -2893 -2894 -2895 -2896 -2897 0
-2110 -2355 -2893 -2894 -2895 -2896 -2897 0
-83 -2355 -2893 -2894 -2895 -2896 -2897 0
-95 -2355 -2893 -2894 -2895 -2896 -2897 0
-2355 -2893 -2894 -2895 -2896 -2897 0
-85 2898 0
-97 2898 0
2111 2898 0
2357 2898 0
85 97 -2111 -2357 -2898 0
-85 2899 0
97 2899 0
-2111 2899 0
2357 2899 0
85 -97 2111 -2357 -2899 0
-85 2900 0
97 2900 0
2111 2900 0
-2357 2900 0
85 -97 -2111 2357 -2900 0
85 2901 0
-97 2901 0
-2111 2901 0
2357 2901 0
-85 97 2111 -2357 -2901 0
85 2902 0
-97 2902 0
2111 2902 0
-2357 2902 0
-85 97 -2111 2357 -2902 0
85 -97 -2898 -2899 -2900 -2901 -2902 0
85 -2111 -2898 -2899 -2900 -2901 -2902 0
85 -2357 -2898 -2899 -2900 -2901 -2902 0
-85 97 -2898 -2899 -2900 -2901 -2902 0
97 -2111 -2898 -2899 -2900 -2901 -2902 0
97 -2357 -2898 -2899 -2900 -2901 -2902 0
-85 -2111 -2898 -2899 -2900 -2901 -2902 0
-97 -2111 -2898 -2899 -2900 -2901 -2902 0
-2111 -2898 -2899 -2900 -2901 -2902 0
-2111 -2357 -2898 -2899 -2900 -2901 -2902 0
-85 -2357 -2898 -2899 -2900 -2901 -2902 0
-97 -2357 -2898 -2899 -2900 -2901 -2902 0
-2357 -2898 -2899 -2900 -2901 -2902 0
-86 2903 0
-98 2903 0
2112 2903 0
2358 2903 0
86 98 -2112 -2358 -2903 0
-86 2904 0
98 2904 0
-2112 2904 0
2358 2904 0
86 -98 2112 -2358 -2904 0
-86 2905 0
98 2905 0
2112 2905 0
-2358 2905 0
86 -98 -2112 2358 -2905 0
86 2906 0
-98 2906 0
-2112 2906 0
2358 2906 0
-86 98 2112 -2358 -2906 0
86 2907 0
-98 2907 0
2112 2907 0
-2358 2907 0
-86 98 -2112 2358 -2907 0
86 -98 -2903 -2904 -2905 -2906 -2907 0
86 -2112 -2903 -2904 -2905 -2906 -2907 0
86 -2358 -2903 -2904 -2905 -2906 -2907 0
-86 98 -2903 -2904 -2905 -2906 -2907 0
98 -2112 -2903 -2904 -2905 -2906 -2907 0
98 -2358 -2903 -2904 -2905 -2906 -2907 0
-86 -2112 -2903 -2904 -2905 -2906 -2907 0
-98 -2112 -2903 -2904 -2905 -2906 -2907 0
-2112 -2903 -2904 -2905 -2906 -2907 0
-2112 -2358 -2903 -2904 -2905 -2906 -2907 0
-86 -2358 -2903 -2904 -2905 -2906 -2907 0
-98 -2358 -2903 -2904 -2905 -2906 -2907 0
-2358 -2903 -2904 -2905 -2906 -2907 0
-94 2908 0
-106 2908 0
94 106 -2908 0
2909 -2908 0
-2909 2908 0
-96 2910 0
-108 2910 0
-2909 2910 0
96 108 2909 -2910 0
2911 -2910 0
2910 -2911 0
-96 -2909 0
-108 -2909 0
95 -107 0
-95 107 0
109 -97 0
97 -109 0
110 -98 0
98 -110 0
-106 2912 0
-118 2912 0
-2121 2912 0
-2366 2912 0
106 118 2121 2366 -2912 0
2913 -2912 0
-2913 2912 0
-108 2914 0
-119 2914 0
-2123 2914 0
-2368 2914 0
-2913 2914 0
108 119 2123 2368 2913 -2914 0
2915 -2914 0
2914 -2915 0
-108 -2913 0
-119 -2913 0
-2123 -2913 0
-2368 -2913 0
-107 2916 0
2122 2916 0
2367 2916 0
107 -2122 -2367 -2916 0
2917 0
2918 0
107 2919 0
-2122 2919 0
2367 2919 0
-107 2122 -2367 -2919 0
107 2920 0
2122 2920 0
-2367 2920 0
-107 -2122 2367 -2920 0
107 -2122 -2916 -2919 -2920 0
107 -2367 -2916 -2919 -2920 0
-107 -2916 -2919 -2920 0
-107 -2122 -2916 -2919 -2920 0
-2122 -2916 -2919 -2920 0
-2122 -2367 -2916 -2919 -2920 0
-107 -2367 -2916 -2919 -2920 0
-2367 -2916 -2919 -2920 0
-109 2921 0
2124 2921 0
2369 2921 0
109 -2124 -2369 -2921 0
2922 0
2923 0
109 2924 0
-2124 2924 0
2369 2924 0
-109 2124 -2369 -2924 0
109 2925 0
2124 2925 0
-2369 2925 0
-109 -2124 2369 -2925 0
109 -2124 -2921 -2924 -2925 0
109 -2369 -2921 -2924 -2925 0
-109 -2921 -2924 -2925 0
-109 -2124 -2921 -2924 -2925 0
-2124 -2921 -2924 -2925 0
-2124 -2369 -2921 -2924 -2925 0
-109 -2369 -2921 -2924 -2925 0
-2369 -2921 -2924 -2925 0
-110 2926 0
2125 2926 0
2370 2926 0
110 -2125 -2370 -2926 0
2927 0
2928 0
110 2929 0
-2125 2929 0
2370 2929 0
-110 2125 -2370 -2929 0
110 2930 0
2125 2930 0
-2370 2930 0
-110 -2125 2370 -2930 0
110 -2125 -2926 -2929 -2930 0
110 -2370 -2926 -2929 -2930 0
-110 -2926 -2929 -2930 0
-110 -2125 -2926 -2929 -2930 0
-2125 -2926 -2929 -2930 0
-2125 -2370 -2926 -2929 -2930 0
-110 -2370 -2926 -2929 -2930 0
-2370 -2926 -2929 -2930 0
2931 -118 0
118 -2931 0
-119 2932 0
-2931 2932 0
119 2931 -2932 0
2933 -2932 0
2932 -2933 0
-119 -2931 0
-2934 0
-2935 0
-2936 0
2937 -127 0
127 -2937 0
-128 2938 0
-2937 2938 0
128 2937 -2938 0
2939 -2938 0
2938 -2939 0
-128 -2937 0
-2940 0
-2941 0
-2942 0
-127 2943 0
-136 2943 0
-2133 2943 0
127 136 2133 -2943 0
2944 -2943 0
-2944 2943 0
-128 2945 0
-138 2945 0
-2135 2945 0
-2944 2945 0
128 138 2135 2944 -2945 0
2946 -2945 0
2945 -2946 0
-128 -2944 0
-138 -2944 0
-2135 -2944 0
-137 2947 0
2134 2947 0
2379 2947 0
137 -2134 -2379 -2947 0
137 2948 0
-2134 2948 0
2379 2948 0
-137 2134 -2379 -2948 0
137 2949 0
2134 2949 0
-2379 2949 0
-137 -2134 2379 -2949 0
2950 0
2951 0
-137 -2947 -2948 -2949 0
137 -2134 -2947 -2948 -2949 0
137 -2379 -2947 -2948 -2949 0
-137 -2134 -2947 -2948 -2949 0
-2134 -2947 -2948 -2949 0
-2134 -2379 -2947 -2948 -2949 0
-137 -2379 -2947 -2948 -2949 0
-2379 -2947 -2948 -2949 0
-139 2952 0
2136 2952 0
2380 2952 0
139 -2136 -2380 -2952 0
139 2953 0
-2136 2953 0
2380 2953 0
-139 2136 -2380 -2953 0
139 2954 0
2136 2954 0
-2380 2954 0
-139 -2136 2380 -2954 0
2955 0
2956 0
-139 -2952 -2953 -2954 0
139 -2136 -2952 -2953 -2954 0
139 -2380 -2952 -2953 -2954 0
-139 -2136 -2952 -2953 -2954 0
-2136 -2952 -2953 -2954 0
-2136 -2380 -2952 -2953 -2954 0
-139 -2380 -2952 -2953 -2954 0
-2380 -2952 -2953 -2954 0
-140 2957 0
2137 2957 0
2381 2957 0
140 -2137 -2381 -2957 0
140 2958 0
-2137 2958 0
2381 2958 0
-140 2137 -2381 -2958 0
140 2959 0
2137 2959 0
-2381 2959 0
-140 -2137 2381 -2959 0
2960 0
2961 0
-140 -2957 -2958 -2959 0
140 -2137 -2957 -2958 -2959 0
140 -2381 -2957 -2958 -2959 0
-140 -2137 -2957 -2958 -2959 0
-2137 -2957 -2958 -2959 0
-2137 -2381 -2957 -2958 -2959 0
-140 -2381 -2957 -2958 -2959 0
-2381 -2957 -2958 -2959 0
-136 2962 0
-148 2962 0
136 148 -2962 0
2963 -2962 0
-2963 2962 0
-138 2964 0
-150 2964 0
-2963 2964 0
138 150 2963 -2964 0
2965 -2964 0
2964 -2965 0
-138 -2963 0
-150 -2963 0
137 -149 0
-137 149 0
151 -139 0
139 -151 0
152 -140 0
140 -152 0
-148 2966 0
-160 2966 0
-2390 2966 0
148 160 2390 -2966 0
2967 -2966 0
-2967 2966 0
-150 2968 0
-162 2968 0
-2392 2968 0
-2967 2968 0
150 162 2392 2967 -2968 0
2969 -2968 0
2968 -2969 0
-150 -2967 0
-162 -2967 0
-2392 -2967 0
-149 2970 0
-161 2970 0
2145 2970 0
2391 2970 0
149 161 -2145 -2391 -2970 0
-149 2971 0
161 2971 0
-2145 2971 0
2391 2971 0
149 -161 2145 -2391 -2971 0
-149 2972 0
161 2972 0
2145 2972 0
-2391 2972 0
149 -161 -2145 2391 -2972 0
149 2973 0
-161 2973 0
-2145 2973 0
2391 2973 0
-149 161 2145 -2391 -2973 0
149 2974 0
-161 2974 0
2145 2974 0
-2391 2974 0
-149 161 -2145 2391 -2974 0
149 -161 -2970 -2971 -2972 -2973 -2974 0
149 -2145 -2970 -2971 -2972 -2973 -2974 0
149 -2391 -2970 -2971 -2972 -2973 -2974 0
-149 161 -2970 -2971 -2972 -2973 -2974 0
161 -2145 -2970 -2971 -2972 -2973 -2974 0
161 -2391 -2970 -2971 -2972 -2973 -2974 0
-149 -2145 -2970 -2971 -2972 -2973 -2974 0
-161 -2145 -2970 -2971 -2972 -2973 -2974 0
-2145 -2970 -2971 -2972 -2973 -2974 0
-2145 -2391 -2970 -2971 -2972 -2973 -2974 0
-149 -2391 -2970 -2971 -2972 -2973 -2974 0
-161 -2391 -2970 -2971 -2972 -2973 -2974 0
-2391 -2970 -2971 -2972 -2973 -2974 0
-151 2975 0
-163 2975 0
2146 2975 0
2393 2975 0
151 163 -2146 -2393 -2975 0
-151 2976 0
163 2976 0
-2146 2976 0
2393 2976 0
151 -163 2146 -2393 -2976 0
-151 2977 0
163 2977 0
2146 2977 0
-2393 2977 0
151 -163 -2146 2393 -2977 0
151 2978 0
-163 2978 0
-2146 2978 0
2393 2978 0
-151 163 2146 -2393 -2978 0
151 2979 0
-163 2979 0
2146 2979 0
-2393 2979 0
-151 163 -2146 2393 -2979 0
151 -163 -2975 -2976 -2977 -2978 -2979 0
151 -2146 -2975 -2976 -2977 -2978 -2979 0
151 -2393 -2975 -2976 -2977 -2978 -2979 0
-151 163 -2975 -2976 -2977 -2978 -2979 0
163 -2146 -2975 -2976 -2977 -2978 -2979 0
163 -2393 -2975 -2976 -2977 -2978 -2979 0
-151 -2146 -2975 -2976 -2977 -2978 -2979 0
-163 -2146 -2975 -2976 -2977 -2978 -2979 0
-2146 -2975 -2976 -2977 -2978 -2979 0
-2146 -2393 -2975 -2976 -2977 -2978 -2979 0
-151 -2393 -2975 -2976 -2977 -2978 -2979 0
-163 -2393 -2975 -2976 -2977 -2978 -2979 0
-2393 -2975 -2976 -2977 -2978 -2979 0
-152 2980 0
-164 2980 0
2147 2980 0
2394 2980 0
152 164 -2147 -2394 -2980 0
-152 2981 0
164 2981 0
-2147 2981 0
2394 2981 0
152 -164 2147 -2394 -2981 0
-152 2982 0
164 2982 0
2147 2982 0
-2394 2982 0
152 -164 -2147 2394 -2982 0
152 2983 0
-164 2983 0
-2147 2983 0
2394 2983 0
-152 164 2147 -2394 -2983 0
152 2984 0
-164 2984 0
2147 2984 0
-2394 2984 0
-152 164 -2147 2394 -2984 0
152 -164 -2980 -2981 -2982 -2983 -2984 0
152 -2147 -2980 -2981 -2982 -2983 -2984 0
152 -2394 -2980 -2981 -2982 -2983 -2984 0
-152 164 -2980 -2981 -2982 -2983 -2984 0
164 -2147 -2980 -2981 -2982 -2983 -2984 0
164 -2394 -2980 -2981 -2982 -2983 -2984 0
-152 -2147 -2980 -2981 -2982 -2983 -2984 0
-164 -2147 -2980 -2981 -2982 -2983 -2984 0
-2147 -2980 -2981 -2982 -2983 -2984 0
-2147 -2394 -2980 -2981 -2982 -2983 -2984 0
-152 -2394 -2980 -2981 -2982 -2983 -2984 0
-164 -2394 -2980 -2981 -2982 -2983 -2984 0
-2394 -2980 -2981 -2982 -2983 -2984 0
-160 2985 0
-172 2985 0
160 172 -2985 0
2986 -2985 0
-2986 2985 0
-162 2987 0
-174 2987 0
-2986 2987 0
162 174 2986 -2987 0
2988 -2987 0
2987 -2988 0
-162 -2986 0
-174 -2986 0
161 -173 0
-161 173 0
175 -163 0
163 -175 0
176 -164 0
164 -176 0
-172 2989 0
-184 2989 0
-2156 2989 0
-2402 2989 0
172 184 2156 2402 -2989 0
2990 -2989 0
-2990 2989 0
-174 2991 0
-185 2991 0
-2158 2991 0
-2404 2991 0
-2990 2991 0
174 185 2158 2404 2990 -2991 0
2992 -2991 0
2991 -2992 0
-174 -2990 0
-185 -2990 0
-2158 -2990 0
-2404 -2990 0
-173 2993 0
2157 2993 0
2403 2993 0
173 -2157 -2403 -2993 0
2994 0
2995 0
173 2996 0
-2157 2996 0
2403 2996 0
-173 2157 -2403 -2996 0
173 2997 0
2157 2997 0
-2403 2997 0
-173 -2157 2403 -2997 0
173 -2157 -2993 -2996 -2997 0
173 -2403 -2993 -2996 -2997 0
-173 -2993 -2996 -2997 0
-173 -2157 -2993 -2996 -2997 0
-2157 -2993 -2996 -2997 0
-2157 -2403 -2993 -2996 -2997 0
-173 -2403 -2993 -2996 -2997 0
-2403 -2993 -2996 -2997 0
-175 2998 0
2159 2998 0
2405 2998 0
175 -2159 -2405 -2998 0
2999 0
3000 0
175 3001 0
-2159 3001 0
2405 3001 0
-175 2159 -2405 -3001 0
175 3002 0
2159 3002 0
-2405 3002 0
-175 -2159 2405 -3002 0
175 -2159 -2998 -3001 -3002 0
175 -2405 -2998 -3001 -3002 0
-175 -2998 -3001 -3002 0
-175 -2159 -2998 -3001 -3002 0
-2159 -2998 -3001 -3002 0
-2159 -2405 -2998 -3001 -3002 0
-175 -2405 -2998 -3001 -3002 0
-2405 -2998 -3001 -3002 0
-176 3003 0
2160 3003 0
2406 3003 0
176 -2160 -2406 -3003 0
3004 0
3005 0
176 3006 0
-2160 3006 0
2406 3006 0
-176 2160 -2406 -3006 0
176 3007 0
2160 3007 0
-2406 3007 0
-176 -2160 2406 -3007 0
176 -2160 -3003 -3006 -3007 0
176 -2406 -3003 -3006 -3007 0
-176 -3003 -3006 -3007 0
-176 -2160 -3003 -3006 -3007 0
-2160 -3003 -3006 -3007 0
-2160 -2406 -3003 -3006 -3007 0
-176 -2406 -3003 -3006 -3007 0
-2406 -3003 -3006 -3007 0
3008 -184 0
184 -3008 0
-185 3009 0
-3008 3009 0
185 3008 -3009 0
3010 -3009 0
3009 -3010 0
-185 -3008 0
-3011 0
-3012 0
-3013 0
3014 -193 0
193 -3014 0
-194 3015 0
-3014 3015 0
194 3014 -3015 0
3016 -3015 0
3015 -3016 0
-194 -3014 0
-3017 0
-3018 0
-3019 0
-193 3020 0
-202 3020 0
-2168 3020 0
193 202 2168 -3020 0
3021 -3020 0
-3021 3020 0
-194 3022 0
-204 3022 0
-2170 3022 0
-3021 3022 0
194 204 2170 3021 -3022 0
3023 -3022 0
3022 -3023 0
-194 -3021 0
-204 -3021 0
-2170 -3021 0
-203 3024 0
2169 3024 0
2415 3024 0
203 -2169 -2415 -3024 0
203 3025 0
-2169 3025 0
2415 3025 0
-203 2169 -2415 -3025 0
203 3026 0
2169 3026 0
-2415 3026 0
-203 -2169 2415 -3026 0
3027 0
3028 0
-203 -3024 -3025 -3026 0
203 -2169 -3024 -3025 -3026 0
203 -2415 -3024 -3025 -3026 0
-203 -2169 -3024 -3025 -3026 0
-2169 -3024 -3025 -3026 0
-2169 -2415 -3024 -3025 -3026 0
-203 -2415 -3024 -3025 -3026 0
-2415 -3024 -3025 -3026 0
-205 3029 0
2171 3029 0
2416 3029 0
205 -2171 -2416 -3029 0
205 3030 0
-2171 3030 0
2416 3030 0
-205 2171 -2416 -3030 0
205 3031 0
2171 3031 0
-2416 3031 0
-205 -2171 2416 -3031 0
3032 0
3033 0
-205 -3029 -3030 -3031 0
205 -2171 -3029 -3030 -3031 0
205 -2416 -3029 -3030 -3031 0
-205 -2171 -3029 -3030 -3031 0
-2171 -3029 -3030 -3031 0
-2171 -2416 -3029 -3030 -3031 0
-205 -2416 -3029 -3030 -3031 0
-2416 -3029 -3030 -3031 0
-206 3034 0
2172 3034 0
2417 3034 0
206 -2172 -2417 -3034 0
206 3035 0
-2172 3035 0
2417 3035 0
-206 2172 -2417 -3035 0
206 3036 0
2172 3036 0
-2417 3036 0
-206 -2172 2417 -3036 0
3037 0
3038 0
-206 -3034 -3035 -3036 0
206 -2172 -3034 -3035 -3036 0
206 -2417 -3034 -3035 -3036 0
-206 -2172 -3034 -3035 -3036 0
-2172 -3034 -3035 -3036 0
-2172 -2417 -3034 -3035 -3036 0
-206 -2417 -3034 -3035 -3036 0
-2417 -3034 -3035 -3036 0
-202 3039 0
-214 3039 0
202 214 -3039 0
3040 -3039 0
-3040 3039 0
-204 3041 0
-216 3041 0
-3040 3041 0
204 216 3040 -3041 0
3042 -3041 0
3041 -3042 0
-204 -3040 0
-216 -3040 0
203 -215 0
-203 215 0
217 -205 0
205 -217 0
218 -206 0
206 -218 0
-214 3043 0
-226 3043 0
-2426 3043 0
214 226 2426 -3043 0
3044 -3043 0
-3044 3043 0
-216 3045 0
-228 3045 0
-2428 3045 0
-3044 3045 0
216 228 2428 3044 -3045 0
3046 -3045 0
3045 -3046 0
-216 -3044 0
-228 -3044 0
-2428 -3044 0
-215 3047 0
-227 3047 0
2180 3047 0
2427 3047 0
215 227 -2180 -2427 -3047 0
-215 3048 0
227 3048 0
-2180 3048 0
2427 3048 0
215 -227 2180 -2427 -3048 0
-215 3049 0
227 3049 0
2180 3049 0
-2427 3049 0
215 -227 -2180 2427 -3049 0
215 3050 0
-227 3050 0
-2180 3050 0
2427 3050 0
-215 227 2180 -2427 -3050 0
215 3051 0
-227 3051 0
2180 3051 0
-2427 3051 0
-215 227 -2180 2427 -3051 0
215 -227 -3047 -3048 -3049 -3050 -3051 0
215 -2180 -3047 -3048 -3049 -3050 -3051 0
215 -2427 -3047 -3048 -3049 -3050 -3051 0
-215 227 -3047 -3048 -3049 -3050 -3051 0
227 -2180 -3047 -3048 -3049 -3050 -3051 0
227 -2427 -3047 -3048 -3049 -3050 -3051 0
-215 -2180 -3047 -3048 -3049 -3050 -3051 0
-227 -2180 -3047 -3048 -3049 -3050 -3051 0
-2180 -3047 -3048 -3049 -3050 -3051 0
-2180 -2427 -3047 -3048 -3049 -3050 -3051 0
-215 -2427 -3047 -3048 -3049 -3050 -3051 0
-227 -2427 -3047 -3048 -3049 -3050 -3051 0
-2427 -3047 -3048 -3049 -3050 -3051 0
-217 3052 0
-229 3052 0
2181 3052 0
2429 3052 0
217 229 -2181 -2429 -3052 0
-217 3053 0
229 3053 0
-2181 3053 0
2429 3053 0
217 -229 2181 -2429 -3053 0
-217 3054 0
229 3054 0
2181 3054 0
-2429 3054 0
217 -229 -2181 2429 -3054 0
217 3055 0
-229 3055 0
-2181 3055 0
2429 3055 0
-217 229 2181 -2429 -3055 0
217 3056 0
-229 3056 0
2181 3056 0
-2429 3056 0
-217 229 -2181 2429 -3056 0
217 -229 -3052 -3053 -3054 -3055 -3056 0
217 -2181 -3052 -3053 -3054 -3055 -3056 0
217 -2429 -3052 -3053 -3054 -3055 -3056 0
-217 229 -3052 -3053 -3054 -3055 -3056 0
229 -2181 -3052 -3053 -3054 -3055 -3056 0
229 -2429 -3052 -3053 -3054 -3055 -3056 0
-217 -2181 -3052 -3053 -3054 -3055 -3056 0
-229 -2181 -3052 -3053 -3054 -3055 -3056 0
-2181 -3052 -3053 -3054 -3055 -3056 0
-2181 -2429 -3052 -3053 -3054 -3055 -3056 0
-217 -2429 -3052 -3053 -3054 -3055 -3056 0
-229 -2429 -3052 -3053 -3054 -3055 -3056 0
-2429 -3052 -3053 -3054 -3055 -3056 0
-218 3057 0
-230 3057 0
2182 3057 0
2430 3057 0
218 230 -2182 -2430 -3057 0
-218 3058 0
230 3058 0
-2182 3058 0
2430 3058 0
218 -230 2182 -2430 -3058 0
-218 3059 0
230 3059 0
2182 3059 0
-2430 3059 0
218 -230 -2182 2430 -3059 0
218 3060 0
-230 3060 0
-2182 3060 0
2430 3060 0
-218 230 2182 -2430 -3060 0
218 3061 0
-230 3061 0
2182 3061 0
-2430 3061 0
-218 230 -2182 2430 -3061 0
218 -230 -3057 -3058 -3059 -3060 -3061 0
218 -2182 -3057 -3058 -3059 -3060 -3061 0
218 -2430 -3057 -3058 -3059 -3060 -3061 0
-218 230 -3057 -3058 -3059 -3060 -3061 0
230 -2182 -3057 -3058 -3059 -3060 -3061 0
230 -2430 -3057 -3058 -3059 -3060 -3061 0
-218 -2182 -3057 -3058 -3059 -3060 -3061 0
-230 -2182 -3057 -3058 -3059 -3060 -3061 0
-2182 -3057 -3058 -3059 -3060 -3061 0
-2182 -2430 -3057 -3058 -3059 -3060 -3061 0
-218 -2430 -3057 -3058 -3059 -3060 -3061 0
-230 -2430 -3057 -3058 -3059 -3060 -3061 0
-2430 -3057 -3058 -3059 -3060 -3061 0
-226 3062 0
-238 3062 0
226 238 -3062 0
3063 -3062 0
-3063 3062 0
-228 3064 0
-240 3064 0
-3063 3064 0
228 240 3063 -3064 0
3065 -3064 0
3064 -3065 0
-228 -3063 0
-240 -3063 0
227 -239 0
-227 239 0
241 -229 0
229 -241 0
242 -230 0
230 -242 0
-238 3066 0
-250 3066 0
-2191 3066 0
238 250 2191 -3066 0
3067 -3066 0
-3067 3066 0
-240 3068 0
-251 3068 0
-2193 3068 0
-3067 3068 0
240 251 2193 3067 -3068 0
3069 -3068 0
3068 -3069 0
-240 -3067 0
-251 -3067 0
-2193 -3067 0
-239 3070 0
2192 3070 0
2439 3070 0
239 -2192 -2439 -3070 0
3071 0
3072 0
239 3073 0
-2192 3073 0
2439 3073 0
-239 2192 -2439 -3073 0
239 3074 0
2192 3074 0
-2439 3074 0
-239 -2192 2439 -3074 0
239 -2192 -3070 -3073 -3074 0
239 -2439 -3070 -3073 -3074 0
-239 -3070 -3073 -3074 0
-239 -2192 -3070 -3073 -3074 0
-2192 -3070 -3073 -3074 0
-2192 -2439 -3070 -3073 -3074 0
-239 -2439 -3070 -3073 -3074 0
-2439 -3070 -3073 -3074 0
-241 3075 0
2194 3075 0
2440 3075 0
241 -2194 -2440 -3075 0
3076 0
3077 0
241 3078 0
-2194 3078 0
2440 3078 0
-241 2194 -2440 -3078 0
241 3079 0
2194 3079 0
-2440 3079 0
-241 -2194 2440 -3079 0
241 -2194 -3075 -3078 -3079 0
241 -2440 -3075 -3078 -3079 0
-241 -3075 -3078 -3079 0
-241 -2194 -3075 -3078 -3079 0
-2194 -3075 -3078 -3079 0
-2194 -2440 -3075 -3078 -3079 0
-241 -2440 -3075 -3078 -3079 0
-2440 -3075 -3078 -3079 0
-242 3080 0
2195 3080 0
2441 3080 0
242 -2195 -2441 -3080 0
3081 0
3082 0
242 3083 0
-2195 3083 0
2441 3083 0
-242 2195 -2441 -3083 0
242 3084 0
2195 3084 0
-2441 3084 0
-242 -2195 2441 -3084 0
242 -2195 -3080 -3083 -3084 0
242 -2441 -3080 -3083 -3084 0
-242 -3080 -3083 -3084 0
-242 -2195 -3080 -3083 -3084 0
-2195 -3080 -3083 -3084 0
-2195 -2441 -3080 -3083 -3084 0
-242 -2441 -3080 -3083 -3084 0
-2441 -3080 -3083 -3084 0
3085 -250 0
250 -3085 0
-251 3086 0
-3085 3086 0
251 3085 -3086 0
3087 -3086 0
3086 -3087 0
-251 -3085 0
-3088 0
-3089 0
-3090 0
3091 -259 0
259 -3091 0
-260 3092 0
-3091 3092 0
260 3091 -3092 0
3093 -3092 0
3092 -3093 0
-260 -3091 0
-3094 0
-3095 0
-3096 0
-259 3097 0
-268 3097 0
-2203 3097 0
259 268 2203 -3097 0
3098 -3097 0
-3098 3097 0
-260 3099 0
-270 3099 0
-2205 3099 0
-3098 3099 0
260 270 2205 3098 -3099 0
3100 -3099 0
3099 -3100 0
-260 -3098 0
-270 -3098 0
-2205 -3098 0
-269 3101 0
2204 3101 0
2451 3101 0
269 -2204 -2451 -3101 0
269 3102 0
-2204 3102 0
2451 3102 0
-269 2204 -2451 -3102 0
269 3103 0
2204 3103 0
-2451 3103 0
-269 -2204 2451 -3103 0
3104 0
3105 0
-269 -3101 -3102 -3103 0
269 -2204 -3101 -3102 -3103 0
269 -2451 -3101 -3102 -3103 0
-269 -2204 -3101 -3102 -3103 0
-2204 -3101 -3102 -3103 0
-2204 -2451 -3101 -3102 -3103 0
-269 -2451 -3101 -3102 -3103 0
-2451 -3101 -3102 -3103 0
-271 3106 0
2206 3106 0
2452 3106 0
271 -2206 -2452 -3106 0
271 3107 0
-2206 3107 0
2452 3107 0
-271 2206 -2452 -3107 0
271 3108 0
2206 3108 0
-2452 3108 0
-271 -2206 2452 -3108 0
3109 0
3110 0
-271 -3106 -3107 -3108 0
271 -2206 -3106 -3107 -3108 0
271 -2452 -3106 -3107 -3108 0
-271 -2206 -3106 -3107 -3108 0
-2206 -3106 -3107 -3108 0
-2206 -2452 -3106 -3107 -3108 0
-271 -2452 -3106 -3107 -3108 0
-2452 -3106 -3107 -3108 0
-272 3111 0
2207 3111 0
2453 3111 0
272 -2207 -2453 -3111 0
272 3112 0
-2207 3112 0
2453 3112 0
-272 2207 -2453 -3112 0
272 3113 0
2207 3113 0
-2453 3113 0
-272 -2207 2453 -3113 0
3114 0
3115 0
-272 -3111 -3112 -3113 0
272 -2207 -3111 -3112 -3113 0
272 -2453 -3111 -3112 -3113 0
-272 -2207 -3111 -3112 -3113 0
-2207 -3111 -3112 -3113 0
-2207 -2453 -3111 -3112 -3113 0
-272 -2453 -3111 -3112 -3113 0
-2453 -3111 -3112 -3113 0
-268 3116 0
-280 3116 0
268 280 -3116 0
3117 -3116 0
-3117 3116 0
-270 3118 0
-282 3118 0
-3117 3118 0
270 282 3117 -3118 0
3119 -3118 0
3118 -3119 0
-270 -3117 0
-282 -3117 0
269 -281 0
-269 281 0
283 -271 0
271 -283 0
284 -272 0
272 -284 0
-280 3120 0
-292 3120 0
-2462 3120 0
280 292 2462 -3120 0
3121 -3120 0
-3121 3120 0
-282 3122 0
-294 3122 0
-2464 3122 0
-3121 3122 0
282 294 2464 3121 -3122 0
3123 -3122 0
3122 -3123 0
-282 -3121 0
-294 -3121 0
-2464 -3121 0
-281 3124 0
-293 3124 0
2215 3124 0
2463 3124 0
281 293 -2215 -2463 -3124 0
-281 3125 0
293 3125 0
-2215 3125 0
2463 3125 0
281 -293 2215 -2463 -3125 0
-281 3126 0
293 3126 0
2215 3126 0
-2463 3126 0
281 -293 -2215 2463 -3126 0
281 3127 0
-293 3127 0
-2215 3127 0
2463 3127 0
-281 293 2215 -2463 -3127 0
281 3128 0
-293 3128 0
2215 3128 0
-2463 3128 0
-281 293 -2215 2463 -3128 0
281 -293 -3124 -3125 -3126 -3127 -3128 0
281 -2215 -3124 -3125 -3126 -3127 -3128 0
281 -2463 -3124 -3125 -3126 -3127 -3128 0
-281 293 -3124 -3125 -3126 -3127 -3128 0
293 -2215 -3124 -3125 -3126 -3127 -3128 0
293 -2463 -3124 -3125 -3126 -3127 -3128 0
-281 -2215 -3124 -3125 -3126 -3127 -3128 0
-293 -2215 -3124 -3125 -3126 -3127 -3128 0
-2215 -3124 -3125 -3126 -3127 -3128 0
-2215 -2463 -3124 -3125 -3126 -3127 -3128 0
-281 -2463 -3124 -3125 -3126 -3127 -3128 0
-293 -2463 -3124 -3125 -3126 -3127 -3128 0
-2463 -3124 -3125 -3126 -3127 -3128 0
-283 3129 0
-295 3129 0
2216 3129 0
2465 3129 0
283 295 -2216 -2465 -3129 0
-283 3130 0
295 3130 0
-2216 3130 0
2465 3130 0
283 -295 2216 -2465 -3130 0
-283 3131 0
295 3131 0
2216 3131 0
-2465 3131 0
283 -295 -2216 2465 -3131 0
283 3132 0
-295 3132 0
-2216 3132 0
2465 3132 0
-283 295 2216 -2465 -3132 0
283 3133 0
-295 3133 0
2216 3133 0
-2465 3133 0
-283 295 -2216 2465 -3133 0
283 -295 -3129 -3130 -3131 -3132 -3133 0
283 -2216 -3129 -3130 -3131 -3132 -3133 0
283 -2465 -3129 -3130 -3131 -3132 -3133 0
-283 295 -3129 -3130 -3131 -3132 -3133 0
295 -2216 -3129 -3130 -3131 -3132 -3133 0
295 -2465 -3129 -3130 -3131 -3132 -3133 0
-283 -2216 -3129 -3130 -3131 -3132 -3133 0
-295 -2216 -3129 -3130 -3131 -3132 -3133 0
-2216 -3129 -3130 -3131 -3132 -3133 0
-2216 -2465 -3129 -3130 -3131 -3132 -3133 0
-283 -2465 -3129 -3130 -3131 -3132 -3133 0
-295 -2465 -3129 -3130 -3131 -3132 -3133 0
-2465 -3129 -3130 -3131 -3132 -3133 0
-284 3134 0
-296 3134 0
2217 3134 0
2466 3134 0
284 296 -2217 -2466 -3134 0
-284 3135 0
296 3135 0
-2217 3135 0
2466 3135 0
284 -296 2217 -2466 -3135 0
-284 3136 0
296 3136 0
2217 3136 0
-2466 3136 0
284 -296 -2217 2466 -3136 0
284 3137 0
-296 3137 0
-2217 3137 0
2466 3137 0
-284 296 2217 -2466 -3137 0
284 3138 0
-296 3138 0
2217 3138 0
-2466 3138 0
-284 296 -2217 2466 -3138 0
284 -296 -3134 -3135 -3136 -3137 -3138 0
284 -2217 -3134 -3135 -3136 -3137 -3138 0
284 -2466 -3134 -3135 -3136 -3137 -3138 0
-284 296 -3134 -3135 -3136 -3137 -3138 0
296 -2217 -3134 -3135 -3136 -3137 -3138 0
296 -2466 -3134 -3135 -3136 -3137 -3138 0
-284 -2217 -3134 -3135 -3136 -3137 -3138 0
-296 -2217 -3134 -3135 -3136 -3137 -3138 0
-2217 -3134 -3135 -3136 -3137 -3138 0
-2217 -2466 -3134 -3135 -3136 -3137 -3138 0
-284 -2466 -3134 -3135 -3136 -3137 -3138 0
-296 -2466 -3134 -3135 -3136 -3137 -3138 0
-2466 -3134 -3135 -3136 -3137 -3138 0
-292 3139 0
-304 3139 0
292 304 -3139 0
3140 -3139 0
-3140 3139 0
-294 3141 0
-306 3141 0
-3140 3141 0
294 306 3140 -3141 0
3142 -3141 0
3141 -3142 0
-294 -3140 0
-306 -3140 0
293 -305 0
-293 305 0
307 -295 0
295 -307 0
308 -296 0
296 -308 0
-304 3143 0
-316 3143 0
-2226 3143 0
-2474 3143 0
304 316 2226 2474 -3143 0
3144 -3143 0
-3144 3143 0
-306 3145 0
-317 3145 0
-2228 3145 0
-2476 3145 0
-3144 3145 0
306 317 2228 2476 3144 -3145 0
3146 -3145 0
3145 -3146 0
-306 -3144 0
-317 -3144 0
-2228 -3144 0
-2476 -3144 0
-305 3147 0
2227 3147 0
2475 3147 0
305 -2227 -2475 -3147 0
3148 0
3149 0
305 3150 0
-2227 3150 0
2475 3150 0
-305 2227 -2475 -3150 0
305 3151 0
2227 3151 0
-2475 3151 0
-305 -2227 2475 -3151 0
305 -2227 -3147 -3150 -3151 0
305 -2475 -3147 -3150 -3151 0
-305 -3147 -3150 -3151 0
-305 -2227 -3147 -3150 -3151 0
-2227 -3147 -3150 -3151 0
-2227 -2475 -3147 -3150 -3151 0
-305 -2475 -3147 -3150 -3151 0
-2475 -3147 -3150 -3151 0
-307 3152 0
2229 3152 0
2477 3152 0
307 -2229 -2477 -3152 0
3153 0
3154 0
307 3155 0
-2229 3155 0
2477 3155 0
-307 2229 -2477 -3155 0
307 3156 0
2229 3156 0
-2477 3156 0
-307 -2229 2477 -3156 0
307 -2229 -3152 -3155 -3156 0
307 -2477 -3152 -3155 -3156 0
-307 -3152 -3155 -3156 0
-307 -2229 -3152 -3155 -3156 0
-2229 -3152 -3155 -3156 0
-2229 -2477 -3152 -3155 -3156 0
-307 -2477 -3152 -3155 -3156 0
-2477 -3152 -3155 -3156 0
-308 3157 0
2230 3157 0
2478 3157 0
308 -2230 -2478 -3157 0
3158 0
3159 0
308 3160 0
-2230 3160 0
2478 3160 0
-308 2230 -2478 -3160 0
308 3161 0
2230 3161 0
-2478 3161 0
-308 -2230 2478 -3161 0
308 -2230 -3157 -3160 -3161 0
308 -2478 -3157 -3160 -3161 0
-308 -3157 -3160 -3161 0
-308 -2230 -3157 -3160 -3161 0
-2230 -3157 -3160 -3161 0
-2230 -2478 -3157 -3160 -3161 0
-308 -2478 -3157 -3160 -3161 0
-2478 -3157 -3160 -3161 0
3162 -316 0
316 -3162 0
-317 3163 0
-3162 3163 0
317 3162 -3163 0
3164 -3163 0
3163 -3164 0
-317 -3162 0
-3165 0
-3166 0
-3167 0
3168 -325 0
325 -3168 0
-326 3169 0
-3168 3169 0
326 3168 -3169 0
3170 -3169 0
3169 -3170 0
-326 -3168 0
-3171 0
-3172 0
-3173 0
-325 3174 0
-334 3174 0
-2238 3174 0
325 334 2238 -3174 0
3175 -3174 0
-3175 3174 0
-326 3176 0
-336 3176 0
-2240 3176 0
-3175 3176 0
326 336 2240 3175 -3176 0
3177 -3176 0
3176 -3177 0
-326 -3175 0
-336 -3175 0
-2240 -3175 0
-335 3178 0
2239 3178 0
2487 3178 0
335 -2239 -2487 -3178 0
335 3179 0
-2239 3179 0
2487 3179 0
-335 2239 -2487 -3179 0
335 3180 0
2239 3180 0
-2487 3180 0
-335 -2239 2487 -3180 0
3181 0
3182 0
-335 -3178 -3179 -3180 0
335 -2239 -3178 -3179 -3180 0
335 -2487 -3178 -3179 -3180 0
-335 -2239 -3178 -3179 -3180 0
-2239 -3178 -3179 -3180 0
-2239 -2487 -3178 -3179 -3180 0
-335 -2487 -3178 -3179 -3180 0
-2487 -3178 -3179 -3180 0
-337 3183 0
2241 3183 0
2488 3183 0
337 -2241 -2488 -3183 0
337 3184 0
-2241 3184 0
2488 3184 0
-337 2241 -2488 -3184 0
337 3185 0
2241 3185 0
-2488 3185 0
-337 -2241 2488 -3185 0
3186 0
3187 0
-337 -3183 -3184 -3185 0
337 -2241 -3183 -3184 -3185 0
337 -2488 -3183 -3184 -3185 0
-337 -2241 -3183 -3184 -3185 0
-2241 -3183 -3184 -3185 0
-2241 -2488 -3183 -3184 -3185 0
-337 -2488 -3183 -3184 -3185 0
-2488 -3183 -3184 -3185 0
-338 3188 0
2242 3188 0
2489 3188 0
338 -2242 -2489 -3188 0
338 3189 0
-2242 3189 0
2489 3189 0
-338 2242 -2489 -3189 0
338 3190 0
2242 3190 0
-2489 3190 0
-338 -2242 2489 -3190 0
3191 0
3192 0
-338 -3188 -3189 -3190 0
338 -2242 -3188 -3189 -3190 0
338 -2489 -3188 -3189 -3190 0
-338 -2242 -3188 -3189 -3190 0
-2242 -3188 -3189 -3190 0
-2242 -2489 -3188 -3189 -3190 0
-338 -2489 -3188 -3189 -3190 0
-2489 -3188 -3189 -3190 0
-334 3193 0
-346 3193 0
334 346 -3193 0
3194 -3193 0
-3194 3193 0
-336 3195 0
-348 3195 0
-3194 3195 0
336 348 3194 -3195 0
3196 -3195 0
3195 -3196 0
-336 -3194 0
-348 -3194 0
335 -347 0
-335 347 0
349 -337 0
337 -349 0
350 -338 0
338 -350 0
-346 3197 0
-358 3197 0
-2498 3197 0
346 358 2498 -3197 0
3198 -3197 0
-3198 3197 0
-348 3199 0
-360 3199 0
-2500 3199 0
-3198 3199 0
348 360 2500 3198 -3199 0
3200 -3199 0
3199 -3200 0
-348 -3198 0
-360 -3198 0
-2500 -3198 0
-347 3201 0
-359 3201 0
2250 3201 0
2499 3201 0
347 359 -2250 -2499 -3201 0
-347 3202 0
359 3202 0
-2250 3202 0
2499 3202 0
347 -359 2250 -2499 -3202 0
-347 3203 0
359 3203 0
2250 3203 0
-2499 3203 0
347 -359 -2250 2499 -3203 0
347 3204 0
-359 3204 0
-2250 3204 0
2499 3204 0
-347 359 2250 -2499 -3204 0
347 3205 0
-359 3205 0
2250 3205 0
-2499 3205 0
-347 359 -2250 2499 -3205 0
347 -359 -3201 -3202 -3203 -3204 -3205 0
347 -2250 -3201 -3202 -3203 -3204 -3205 0
347 -2499 -3201 -3202 -3203 -3204 -3205 0
-347 359 -3201 -3202 -3203 -3204 -3205 0
359 -2250 -3201 -3202 -3203 -3204 -3205 0
359 -2499 -3201 -3202 -3203 -3204 -3205 0
-347 -2250 -3201 -3202 -3203 -3204 -3205 0
-359 -2250 -3201 -3202 -3203 -3204 -3205 0
-2250 -3201 -3202 -3203 -3204 -3205 0
-2250 -2499 -3201 -3202 -3203 -3204 -3205 0
-347 -2499 -3201 -3202 -3203 -3204 -3205 0
-359 -2499 -3201 -3202 -3203 -3204 -3205 0
-2499 -3201 -3202 -3203 -3204 -3205 0
-349 3206 0
-361 3206 0
2251 3206 0
2501 3206 0
349 361 -2251 -2501 -3206 0
-349 3207 0
361 3207 0
-2251 3207 0
2501 3207 0
349 -361 2251 -2501 -3207 0
-349 3208 0
361 3208 0
2251 3208 0
-2501 3208 0
349 -361 -2251 2501 -3208 0
349 3209 0
-361 3209 0
-2251 3209 0
2501 3209 0
-349 361 2251 -2501 -3209 0
349 3210 0
-361 3210 0
2251 3210 0
-2501 3210 0
-349 361 -2251 2501 -3210 0
349 -361 -3206 -3207 -3208 -3209 -3210 0
349 -2251 -3206 -3207 -3208 -3209 -3210 0
349 -2501 -3206 -3207 -3208 -3209 -3210 0
-349 361 -3206 -3207 -3208 -3209 -3210 0
361 -2251 -3206 -3207 -3208 -3209 -3210 0
361 -2501 -3206 -3207 -3208 -3209 -3210 0
-349 -2251 -3206 -3207 -3208 -3209 -3210 0
-361 -2251 -3206 -3207 -3208 -3209 -3210 0
-2251 -3206 -3207 -3208 -3209 -3210 0
-2251 -2501 -3206 -3207 -3208 -3209 -3210 0
-349 -2501 -3206 -3207 -3208 -3209 -3210 0
-361 -2501 -3206 -3207 -3208 -3209 -3210 0
-2501 -3206 -3207 -3208 -3209 -3210 0
-350 3211 0
-362 3211 0
2252 3211 0
2502 3211 0
350 362 -2252 -2502 -3211 0
-350 3212 0
362 3212 0
-2252 3212 0
2502 3212 0
350 -362 2252 -2502 -3212 0
-350 3213 0
362 3213 0
2252 3213 0
-2502 3213 0
350 -362 -2252 2502 -3213 0
350 3214 0
-362 3214 0
-2252 3214 0
2502 3214 0
-350 362 2252 -2502 -3214 0
350 3215 0
-362 3215 0
2252 3215 0
-2502 3215 0
-350 362 -2252 2502 -3215 0
350 -362 -3211 -3212 -3213 -3214 -3215 0
350 -2252 -3211 -3212 -3213 -3214 -3215 0
350 -2502 -3211 -3212 -3213 -3214 -3215 0
-350 362 -3211 -3212 -3213 -3214 -3215 0
362 -2252 -3211 -3212 -3213 -3214 -3215 0
362 -2502 -3211 -3212 -3213 -3214 -3215 0
-350 -2252 -3211 -3212 -3213 -3214 -3215 0
-362 -2252 -3211 -3212 -3213 -3214 -3215 0
-2252 -3211 -3212 -3213 -3214 -3215 0
-2252 -2502 -3211 -3212 -3213 -3214 -3215 0
-350 -2502 -3211 -3212 -3213 -3214 -3215 0
-362 -2502 -3211 -3212 -3213 -3214 -3215 0
-2502 -3211 -3212 -3213 -3214 -3215 0
-358 3216 0
-370 3216 0
358 370 -3216 0
3217 -3216 0
-3217 3216 0
-360 3218 0
-372 3218 0
-3217 3218 0
360 372 3217 -3218 0
3219 -3218 0
3218 -3219 0
-360 -3217 0
-372 -3217 0
359 -371 0
-359 371 0
373 -361 0
361 -373 0
374 -362 0
362 -374 0
-370 3220 0
-382 3220 0
-2261 3220 0
-2510 3220 0
370 382 2261 2510 -3220 0
3221 -3220 0
-3221 3220 0
-372 3222 0
-383 3222 0
-2263 3222 0
-2512 3222 0
-3221 3222 0
372 383 2263 2512 3221 -3222 0
3223 -3222 0
3222 -3223 0
-372 -3221 0
-383 -3221 0
-2263 -3221 0
-2512 -3221 0
-371 3224 0
2262 3224 0
2511 3224 0
371 -2262 -2511 -3224 0
3225 0
3226 0
371 3227 0
-2262 3227 0
2511 3227 0
-371 2262 -2511 -3227 0
371 3228 0
2262 3228 0
-2511 3228 0
-371 -2262 2511 -3228 0
371 -2262 -3224 -3227 -3228 0
371 -2511 -3224 -3227 -3228 0
-371 -3224 -3227 -3228 0
-371 -2262 -3224 -3227 -3228 0
-2262 -3224 -3227 -3228 0
-2262 -2511 -3224 -3227 -3228 0
-371 -2511 -3224 -3227 -3228 0
-2511 -3224 -3227 -3228 0
-373 3229 0
2264 3229 0
2513 3229 0
373 -2264 -2513 -3229 0
3230 0
3231 0
373 3232 0
-2264 3232 0
2513 3232 0
-373 2264 -2513 -3232 0
373 3233 0
2264 3233 0
-2513 3233 0
-373 -2264 2513 -3233 0
373 -2264 -3229 -3232 -3233 0
373 -2513 -3229 -3232 -3233 0
-373 -3229 -3232 -3233 0
-373 -2264 -3229 -3232 -3233 0
-2264 -3229 -3232 -3233 0
-2264 -2513 -3229 -3232 -3233 0
-373 -2513 -3229 -3232 -3233 0
-2513 -3229 -3232 -3233 0
-374 3234 0
2265 3234 0
2514 3234 0
374 -2265 -2514 -3234 0
3235 0
3236 0
374 3237 0
-2265 3237 0
2514 3237 0
-374 2265 -2514 -3237 0
374 3238 0
2265 3238 0
-2514 3238 0
-374 -2265 2514 -3238 0
374 -2265 -3234 -3237 -3238 0
374 -2514 -3234 -3237 -3238 0
-374 -3234 -3237 -3238 0
-374 -2265 -3234 -3237 -3238 0
-2265 -3234 -3237 -3238 0
-2265 -2514 -3234 -3237 -3238 0
-374 -2514 -3234 -3237 -3238 0
-2514 -3234 -3237 -3238 0
3239 -382 0
382 -3239 0
-383 3240 0
-3239 3240 0
383 3239 -3240 0
3241 -3240 0
3240 -3241 0
-383 -3239 0
-3242 0
-3243 0
-3244 0
-3245 0
-3246 0
-3247 0
-3248 0
-3249 0
-3250 0
-3251 0
-3252 0
-3253 0
-3254 0
-399 3255 0
2273 3255 0
2523 3255 0
399 -2273 -2523 -3255 0
399 3256 0
-2273 3256 0
2523 3256 0
-399 2273 -2523 -3256 0
399 3257 0
2273 3257 0
-2523 3257 0
-399 -2273 2523 -3257 0
3258 0
3259 0
-399 -3255 -3256 -3257 0
399 -2273 -3255 -3256 -3257 0
399 -2523 -3255 -3256 -3257 0
-399 -2273 -3255 -3256 -3257 0
-2273 -3255 -3256 -3257 0
-2273 -2523 -3255 -3256 -3257 0
-399 -2523 -3255 -3256 -3257 0
-2523 -3255 -3256 -3257 0
-400 3260 0
2274 3260 0
2524 3260 0
400 -2274 -2524 -3260 0
400 3261 0
-2274 3261 0
2524 3261 0
-400 2274 -2524 -3261 0
400 3262 0
2274 3262 0
-2524 3262 0
-400 -2274 2524 -3262 0
3263 0
3264 0
-400 -3260 -3261 -3262 0
400 -2274 -3260 -3261 -3262 0
400 -2524 -3260 -3261 -3262 0
-400 -2274 -3260 -3261 -3262 0
-2274 -3260 -3261 -3262 0
-2274 -2524 -3260 -3261 -3262 0
-400 -2524 -3260 -3261 -3262 0
-2524 -3260 -3261 -3262 0
-401 3265 0
2275 3265 0
2525 3265 0
401 -2275 -2525 -3265 0
401 3266 0
-2275 3266 0
2525 3266 0
-401 2275 -2525 -3266 0
401 3267 0
2275 3267 0
-2525 3267 0
-401 -2275 2525 -3267 0
3268 0
3269 0
-401 -3265 -3266 -3267 0
401 -2275 -3265 -3266 -3267 0
401 -2525 -3265 -3266 -3267 0
-401 -2275 -3265 -3266 -3267 0
-2275 -3265 -3266 -3267 0
-2275 -2525 -3265 -3266 -3267 0
-401 -2525 -3265 -3266 -3267 0
-2525 -3265 -3266 -3267 0
-3270 0
-3271 0
-3272 0
-3273 0
399 -410 0
-399 410 0
411 -400 0
400 -411 0
412 -401 0
401 -412 0
-3274 0
-3275 0
-3276 0
-3277 0
-410 3278 0
-421 3278 0
2284 3278 0
2535 3278 0
410 421 -2284 -2535 -3278 0
-410 3279 0
421 3279 0
-2284 3279 0
2535 3279 0
410 -421 2284 -2535 -3279 0
-410 3280 0
421 3280 0
2284 3280 0
-2535 3280 0
410 -421 -2284 2535 -3280 0
410 3281 0
-421 3281 0
-2284 3281 0
2535 3281 0
-410 421 2284 -2535 -3281 0
410 3282 0
-421 3282 0
2284 3282 0
-2535 3282 0
-410 421 -2284 2535 -3282 0
410 -421 -3278 -3279 -3280 -3281 -3282 0
410 -2284 -3278 -3279 -3280 -3281 -3282 0
410 -2535 -3278 -3279 -3280 -3281 -3282 0
-410 421 -3278 -3279 -3280 -3281 -3282 0
421 -2284 -3278 -3279 -3280 -3281 -3282 0
421 -2535 -3278 -3279 -3280 -3281 -3282 0
-410 -2284 -3278 -3279 -3280 -3281 -3282 0
-421 -2284 -3278 -3279 -3280 -3281 -3282 0
-2284 -3278 -3279 -3280 -3281 -3282 0
-2284 -2535 -3278 -3279 -3280 -3281 -3282 0
-410 -2535 -3278 -3279 -3280 -3281 -3282 0
-421 -2535 -3278 -3279 -3280 -3281 -3282 0
-2535 -3278 -3279 -3280 -3281 -3282 0
-411 3283 0
-422 3283 0
2285 3283 0
2536 3283 0
411 422 -2285 -2536 -3283 0
-411 3284 0
422 3284 0
-2285 3284 0
2536 3284 0
411 -422 2285 -2536 -3284 0
-411 3285 0
422 3285 0
2285 3285 0
-2536 3285 0
411 -422 -2285 2536 -3285 0
411 3286 0
-422 3286 0
-2285 3286 0
2536 3286 0
-411 422 2285 -2536 -3286 0
411 3287 0
-422 3287 0
2285 3287 0
-2536 3287 0
-411 422 -2285 2536 -3287 0
411 -422 -3283 -3284 -3285 -3286 -3287 0
411 -2285 -3283 -3284 -3285 -3286 -3287 0
411 -2536 -3283 -3284 -3285 -3286 -3287 0
-411 422 -3283 -3284 -3285 -3286 -3287 0
422 -2285 -3283 -3284 -3285 -3286 -3287 0
422 -2536 -3283 -3284 -3285 -3286 -3287 0
-411 -2285 -3283 -3284 -3285 -3286 -3287 0
-422 -2285 -3283 -3284 -3285 -3286 -3287 0
-2285 -3283 -3284 -3285 -3286 -3287 0
-2285 -2536 -3283 -3284 -3285 -3286 -3287 0
-411 -2536 -3283 -3284 -3285 -3286 -3287 0
-422 -2536 -3283 -3284 -3285 -3286 -3287 0
-2536 -3283 -3284 -3285 -3286 -3287 0
-412 3288 0
-423 3288 0
2286 3288 0
2537 3288 0
412 423 -2286 -2537 -3288 0
-412 3289 0
423 3289 0
-2286 3289 0
2537 3289 0
412 -423 2286 -2537 -3289 0
-412 3290 0
423 3290 0
2286 3290 0
-2537 3290 0
412 -423 -2286 2537 -3290 0
412 3291 0
-423 3291 0
-2286 3291 0
2537 3291 0
-412 423 2286 -2537 -3291 0
412 3292 0
-423 3292 0
2286 3292 0
-2537 3292 0
-412 423 -2286 2537 -3292 0
412 -423 -3288 -3289 -3290 -3291 -3292 0
412 -2286 -3288 -3289 -3290 -3291 -3292 0
412 -2537 -3288 -3289 -3290 -3291 -3292 0
-412 423 -3288 -3289 -3290 -3291 -3292 0
423 -2286 -3288 -3289 -3290 -3291 -3292 0
423 -2537 -3288 -3289 -3290 -3291 -3292 0
-412 -2286 -3288 -3289 -3290 -3291 -3292 0
-423 -2286 -3288 -3289 -3290 -3291 -3292 0
-2286 -3288 -3289 -3290 -3291 -3292 0
-2286 -2537 -3288 -3289 -3290 -3291 -3292 0
-412 -2537 -3288 -3289 -3290 -3291 -3292 0
-423 -2537 -3288 -3289 -3290 -3291 -3292 0
-2537 -3288 -3289 -3290 -3291 -3292 0
-3293 0
-3294 0
-3295 0
-3296 0
421 -432 0
-421 432 0
433 -422 0
422 -433 0
434 -423 0
423 -434 0
-3297 0
-3298 0
-3299 0
-3300 0
-432 3301 0
2295 3301 0
2547 3301 0
432 -2295 -2547 -3301 0
3302 0
3303 0
432 3304 0
-2295 3304 0
2547 3304 0
-432 2295 -2547 -3304 0
432 3305 0
2295 3305 0
-2547 3305 0
-432 -2295 2547 -3305 0
432 -2295 -3301 -3304 -3305 0
432 -2547 -3301 -3304 -3305 0
-432 -3301 -3304 -3305 0
-432 -2295 -3301 -3304 -3305 0
-2295 -3301 -3304 -3305 0
-2295 -2547 -3301 -3304 -3305 0
-432 -2547 -3301 -3304 -3305 0
-2547 -3301 -3304 -3305 0
-433 3306 0
2296 3306 0
2548 3306 0
433 -2296 -2548 -3306 0
3307 0
3308 0
433 3309 0
-2296 3309 0
2548 3309 0
-433 2296 -2548 -3309 0
433 3310 0
2296 3310 0
-2548 3310 0
-433 -2296 2548 -3310 0
433 -2296 -3306 -3309 -3310 0
433 -2548 -3306 -3309 -3310 0
-433 -3306 -3309 -3310 0
-433 -2296 -3306 -3309 -3310 0
-2296 -3306 -3309 -3310 0
-2296 -2548 -3306 -3309 -3310 0
-433 -2548 -3306 -3309 -3310 0
-2548 -3306 -3309 -3310 0
-434 3311 0
2297 3311 0
2549 3311 0
434 -2297 -2549 -3311 0
3312 0
3313 0
434 3314 0
-2297 3314 0
2549 3314 0
-434 2297 -2549 -3314 0
434 3315 0
2297 3315 0
-2549 3315 0
-434 -2297 2549 -3315 0
434 -2297 -3311 -3314 -3315 0
434 -2549 -3311 -3314 -3315 0
-434 -3311 -3314 -3315 0
-434 -2297 -3311 -3314 -3315 0
-2297 -3311 -3314 -3315 0
-2297 -2549 -3311 -3314 -3315 0
-434 -2549 -3311 -3314 -3315 0
-2549 -3311 -3314 -3315 0
-3316 0
-3317 0
-3318 0
-3319 0
-3320 0
-3321 0
3322 -451 0
451 -3322 0
-452 3323 0
-3322 3323 0
452 3322 -3323 0
3324 -3323 0
3323 -3324 0
-452 -3322 0
-3325 0
-3326 0
-3327 0
3328 -757 0
757 -3328 0
-758 3329 0
-3328 3329 0
758 3328 -3329 0
3330 -3329 0
3329 -3330 0
-758 -3328 0
-3331 0
-3332 0
-3333 0
3334 -1063 0
1063 -3334 0
-1064 3335 0
-3334 3335 0
1064 3334 -3335 0
3336 -3335 0
3335 -3336 0
-1064 -3334 0
-3337 0
-3338 0
-3339 0
-451 3340 0
-460 3340 0
451 460 -3340 0
3341 -3340 0
-3341 3340 0
-452 3342 0
-462 3342 0
-3341 3342 0
452 462 3341 -3342 0
3343 -3342 0
3342 -3343 0
-452 -3341 0
-462 -3341 0
-461 3344 0
1819 3344 0
2065 3344 0
461 -1819 -2065 -3344 0
461 3345 0
-1819 3345 0
2065 3345 0
-461 1819 -2065 -3345 0
461 3346 0
1819 3346 0
-2065 3346 0
-461 -1819 2065 -3346 0
3347 0
3348 0
-461 -3344 -3345 -3346 0
461 -1819 -3344 -3345 -3346 0
461 -2065 -3344 -3345 -3346 0
-461 -1819 -3344 -3345 -3346 0
-1819 -3344 -3345 -3346 0
-1819 -2065 -3344 -3345 -3346 0
-461 -2065 -3344 -3345 -3346 0
-2065 -3344 -3345 -3346 0
-463 3349 0
1820 3349 0
2066 3349 0
463 -1820 -2066 -3349 0
463 3350 0
-1820 3350 0
2066 3350 0
-463 1820 -2066 -3350 0
463 3351 0
1820 3351 0
-2066 3351 0
-463 -1820 2066 -3351 0
3352 0
3353 0
-463 -3349 -3350 -3351 0
463 -1820 -3349 -3350 -3351 0
463 -2066 -3349 -3350 -3351 0
-463 -1820 -3349 -3350 -3351 0
-1820 -3349 -3350 -3351 0
-1820 -2066 -3349 -3350 -3351 0
-463 -2066 -3349 -3350 -3351 0
-2066 -3349 -3350 -3351 0
-464 3354 0
1821 3354 0
2067 3354 0
464 -1821 -2067 -3354 0
464 3355 0
-1821 3355 0
2067 3355 0
-464 1821 -2067 -3355 0
464 3356 0
1821 3356 0
-2067 3356 0
-464 -1821 2067 -3356 0
3357 0
3358 0
-464 -3354 -3355 -3356 0
464 -1821 -3354 -3355 -3356 0
464 -2067 -3354 -3355 -3356 0
-464 -1821 -3354 -3355 -3356 0
-1821 -3354 -3355 -3356 0
-1821 -2067 -3354 -3355 -3356 0
-464 -2067 -3354 -3355 -3356 0
-2067 -3354 -3355 -3356 0
-757 3359 0
-766 3359 0
757 766 -3359 0
3360 -3359 0
-3360 3359 0
-758 3361 0
-768 3361 0
-3360 3361 0
758 768 3360 -3361 0
3362 -3361 0
3361 -3362 0
-758 -3360 0
-768 -3360 0
-767 3363 0
1830 3363 0
2076 3363 0
767 -1830 -2076 -3363 0
767 3364 0
-1830 3364 0
2076 3364 0
-767 1830 -2076 -3364 0
767 3365 0
1830 3365 0
-2076 3365 0
-767 -1830 2076 -3365 0
3366 0
3367 0
-767 -3363 -3364 -3365 0
767 -1830 -3363 -3364 -3365 0
767 -2076 -3363 -3364 -3365 0
-767 -1830 -3363 -3364 -3365 0
-1830 -3363 -3364 -3365 0
-1830 -2076 -3363 -3364 -3365 0
-767 -2076 -3363 -3364 -3365 0
-2076 -3363 -3364 -3365 0
-769 3368 0
1831 3368 0
2077 3368 0
769 -1831 -2077 -3368 0
769 3369 0
-1831 3369 0
2077 3369 0
-769 1831 -2077 -3369 0
769 3370 0
1831 3370 0
-2077 3370 0
-769 -1831 2077 -3370 0
3371 0
3372 0
-769 -3368 -3369 -3370 0
769 -1831 -3368 -3369 -3370 0
769 -2077 -3368 -3369 -3370 0
-769 -1831 -3368 -3369 -3370 0
-1831 -3368 -3369 -3370 0
-1831 -2077 -3368 -3369 -3370 0
-769 -2077 -3368 -3369 -3370 0
-2077 -3368 -3369 -3370 0
-770 3373 0
1832 3373 0
2078 3373 0
770 -1832 -2078 -3373 0
770 3374 0
-1832 3374 0
2078 3374 0
-770 1832 -2078 -3374 0
770 3375 0
1832 3375 0
-2078 3375 0
-770 -1832 2078 -3375 0
3376 0
3377 0
-770 -3373 -3374 -3375 0
770 -1832 -3373 -3374 -3375 0
770 -2078 -3373 -3374 -3375 0
-770 -1832 -3373 -3374 -3375 0
-1832 -3373 -3374 -3375 0
-1832 -2078 -3373 -3374 -3375 0
-770 -2078 -3373 -3374 -3375 0
-2078 -3373 -3374 -3375 0
-1063 3378 0
-1072 3378 0
1063 1072 -3378 0
3379 -3378 0
-3379 3378 0
-1064 3380 0
-1074 3380 0
-3379 3380 0
1064 1074 3379 -3380 0
3381 -3380 0
3380 -3381 0
-1064 -3379 0
-1074 -3379 0
-1073 3382 0
1841 3382 0
2087 3382 0
1073 -1841 -2087 -3382 0
1073 3383 0
-1841 3383 0
2087 3383 0
-1073 1841 -2087 -3383 0
1073 3384 0
1841 3384 0
-2087 3384 0
-1073 -1841 2087 -3384 0
3385 0
3386 0
-1073 -3382 -3383 -3384 0
1073 -1841 -3382 -3383 -3384 0
1073 -2087 -3382 -3383 -3384 0
-1073 -1841 -3382 -3383 -3384 0
-1841 -3382 -3383 -3384 0
-1841 -2087 -3382 -3383 -3384 0
-1073 -2087 -3382 -3383 -3384 0
-2087 -3382 -3383 -3384 0
-1075 3387 0
1842 3387 0
2088 3387 0
1075 -1842 -2088 -3387 0
1075 3388 0
-1842 3388 0
2088 3388 0
-1075 1842 -2088 -3388 0
1075 3389 0
1842 3389 0
-2088 3389 0
-1075 -1842 2088 -3389 0
3390 0
3391 0
-1075 -3387 -3388 -3389 0
1075 -1842 -3387 -3388 -3389 0
1075 -2088 -3387 -3388 -3389 0
-1075 -1842 -3387 -3388 -3389 0
-1842 -3387 -3388 -3389 0
-1842 -2088 -3387 -3388 -3389 0
-1075 -2088 -3387 -3388 -3389 0
-2088 -3387 -3388 -3389 0
-1076 3392 0
1843 3392 0
2089 3392 0
1076 -1843 -2089 -3392 0
1076 3393 0
-1843 3393 0
2089 3393 0
-1076 1843 -2089 -3393 0
1076 3394 0
1843 3394 0
-2089 3394 0
-1076 -1843 2089 -3394 0
3395 0
3396 0
-1076 -3392 -3393 -3394 0
1076 -1843 -3392 -3393 -3394 0
1076 -2089 -3392 -3393 -3394 0
-1076 -1843 -3392 -3393 -3394 0
-1843 -3392 -3393 -3394 0
-1843 -2089 -3392 -3393 -3394 0
-1076 -2089 -3392 -3393 -3394 0
-2089 -3392 -3393 -3394 0
-460 3397 0
-472 3397 0
460 472 -3397 0
3398 -3397 0
-3398 3397 0
-462 3399 0
-474 3399 0
-3398 3399 0
462 474 3398 -3399 0
3400 -3399 0
3399 -3400 0
-462 -3398 0
-474 -3398 0
461 -473 0
-461 473 0
475 -463 0
463 -475 0
476 -464 0
464 -476 0
-766 3401 0
-778 3401 0
766 778 -3401 0
3402 -3401 0
-3402 3401 0
-768 3403 0
-780 3403 0
-3402 3403 0
768 780 3402 -3403 0
3404 -3403 0
3403 -3404 0
-768 -3402 0
-780 -3402 0
779 -767 0
767 -779 0
781 -769 0
769 -781 0
782 -770 0
770 -782 0
-1072 3405 0
-1084 3405 0
1072 1084 -3405 0
3406 -3405 0
-3406 3405 0
-1074 3407 0
-1086 3407 0
-3406 3407 0
1074 1086 3406 -3407 0
3408 -3407 0
3407 -3408 0
-1074 -3406 0
-1086 -3406 0
1085 -1073 0
1073 -1085 0
1087 -1075 0
1075 -1087 0
1088 -1076 0
1076 -1088 0
-472 3409 0
-484 3409 0
472 484 -3409 0
3410 -3409 0
-3410 3409 0
-474 3411 0
-486 3411 0
-3410 3411 0
474 486 3410 -3411 0
3412 -3411 0
3411 -3412 0
-474 -3410 0
-486 -3410 0
485 -473 0
473 -485 0
487 -475 0
475 -487 0
488 -476 0
476 -488 0
-778 3413 0
-790 3413 0
778 790 -3413 0
3414 -3413 0
-3414 3413 0
-780 3415 0
-792 3415 0
-3414 3415 0
780 792 3414 -3415 0
3416 -3415 0
3415 -3416 0
-780 -3414 0
-792 -3414 0
791 -779 0
779 -791 0
793 -781 0
781 -793 0
794 -782 0
782 -794 0
-1084 3417 0
-1096 3417 0
1084 1096 -3417 0
3418 -3417 0
-3418 3417 0
-1086 3419 0
-1098 3419 0
-3418 3419 0
1086 1098 3418 -3419 0
3420 -3419 0
3419 -3420 0
-1086 -3418 0
-1098 -3418 0
1097 -1085 0
1085 -1097 0
1099 -1087 0
1087 -1099 0
1100 -1088 0
1088 -1100 0
-484 3421 0
-496 3421 0
484 496 -3421 0
3422 -3421 0
-3422 3421 0
-486 3423 0
-498 3423 0
-3422 3423 0
486 498 3422 -3423 0
3424 -3423 0
3423 -3424 0
-486 -3422 0
-498 -3422 0
497 -485 0
485 -497 0
499 -487 0
487 -499 0
500 -488 0
488 -500 0
-790 3425 0
-802 3425 0
790 802 -3425 0
3426 -3425 0
-3426 3425 0
-792 3427 0
-804 3427 0
-3426 3427 0
792 804 3426 -3427 0
3428 -3427 0
3427 -3428 0
-792 -3426 0
-804 -3426 0
803 -791 0
791 -803 0
805 -793 0
793 -805 0
806 -794 0
794 -806 0
-1096 3429 0
-1108 3429 0
1096 1108 -3429 0
3430 -3429 0
-3430 3429 0
-1098 3431 0
-1110 3431 0
-3430 3431 0
1098 1110 3430 -3431 0
3432 -3431 0
3431 -3432 0
-1098 -3430 0
-1110 -3430 0
1109 -1097 0
1097 -1109 0
1111 -1099 0
1099 -1111 0
1112 -1100 0
1100 -1112 0
-496 3433 0
-508 3433 0
-1852 3433 0
-2098 3433 0
496 508 1852 2098 -3433 0
3434 -3433 0
-3434 3433 0
-498 3435 0
-510 3435 0
-1854 3435 0
-2100 3435 0
-3434 3435 0
498 510 1854 2100 3434 -3435 0
3436 -3435 0
3435 -3436 0
-498 -3434 0
-510 -3434 0
-1854 -3434 0
-2100 -3434 0
-497 3437 0
-509 3437 0
1853 3437 0
2099 3437 0
497 509 -1853 -2099 -3437 0
-497 3438 0
509 3438 0
-1853 3438 0
2099 3438 0
497 -509 1853 -2099 -3438 0
-497 3439 0
509 3439 0
1853 3439 0
-2099 3439 0
497 -509 -1853 2099 -3439 0
497 3440 0
-509 3440 0
-1853 3440 0
2099 3440 0
-497 509 1853 -2099 -3440 0
497 3441 0
-509 3441 0
1853 3441 0
-2099 3441 0
-497 509 -1853 2099 -3441 0
497 -509 -3437 -3438 -3439 -3440 -3441 0
497 -1853 -3437 -3438 -3439 -3440 -3441 0
497 -2099 -3437 -3438 -3439 -3440 -3441 0
-497 509 -3437 -3438 -3439 -3440 -3441 0
509 -1853 -3437 -3438 -3439 -3440 -3441 0
509 -2099 -3437 -3438 -3439 -3440 -3441 0
-497 -1853 -3437 -3438 -3439 -3440 -3441 0
-509 -1853 -3437 -3438 -3439 -3440 -3441 0
-1853 -3437 -3438 -3439 -3440 -3441 0
-1853 -2099 -3437 -3438 -3439 -3440 -3441 0
-497 -2099 -3437 -3438 -3439 -3440 -3441 0
-509 -2099 -3437 -3438 -3439 -3440 -3441 0
-2099 -3437 -3438 -3439 -3440 -3441 0
-499 3442 0
-511 3442 0
1855 3442 0
2101 3442 0
499 511 -1855 -2101 -3442 0
-499 3443 0
511 3443 0
-1855 3443 0
2101 3443 0
499 -511 1855 -2101 -3443 0
-499 3444 0
511 3444 0
1855 3444 0
-2101 3444 0
499 -511 -1855 2101 -3444 0
499 3445 0
-511 3445 0
-1855 3445 0
2101 3445 0
-499 511 1855 -2101 -3445 0
499 3446 0
-511 3446 0
1855 3446 0
-2101 3446 0
-499 511 -1855 2101 -3446 0
499 -511 -3442 -3443 -3444 -3445 -3446 0
499 -1855 -3442 -3443 -3444 -3445 -3446 0
499 -2101 -3442 -3443 -3444 -3445 -3446 0
-499 511 -3442 -3443 -3444 -3445 -3446 0
511 -1855 -3442 -3443 -3444 -3445 -3446 0
511 -2101 -3442 -3443 -3444 -3445 -3446 0
-499 -1855 -3442 -3443 -3444 -3445 -3446 0
-511 -1855 -3442 -3443 -3444 -3445 -3446 0
-1855 -3442 -3443 -3444 -3445 -3446 0
-1855 -2101 -3442 -3443 -3444 -3445 -3446 0
-499 -2101 -3442 -3443 -3444 -3445 -3446 0
-511 -2101 -3442 -3443 -3444 -3445 -3446 0
-2101 -3442 -3443 -3444 -3445 -3446 0
-500 3447 0
-512 3447 0
1856 3447 0
2102 3447 0
500 512 -1856 -2102 -3447 0
-500 3448 0
512 3448 0
-1856 3448 0
2102 3448 0
500 -512 1856 -2102 -3448 0
-500 3449 0
512 3449 0
1856 3449 0
-2102 3449 0
500 -512 -1856 2102 -3449 0
500 3450 0
-512 3450 0
-1856 3450 0
2102 3450 0
-500 512 1856 -2102 -3450 0
500 3451 0
-512 3451 0
1856 3451 0
-2102 3451 0
-500 512 -1856 2102 -3451 0
500 -512 -3447 -3448 -3449 -3450 -3451 0
500 -1856 -3447 -3448 -3449 -3450 -3451 0
500 -2102 -3447 -3448 -3449 -3450 -3451 0
-500 512 -3447 -3448 -3449 -3450 -3451 0
512 -1856 -3447 -3448 -3449 -3450 -3451 0
512 -2102 -3447 -3448 -3449 -3450 -3451 0
-500 -1856 -3447 -3448 -3449 -3450 -3451 0
-512 -1856 -3447 -3448 -3449 -3450 -3451 0
-1856 -3447 -3448 -3449 -3450 -3451 0
-1856 -2102 -3447 -3448 -3449 -3450 -3451 0
-500 -2102 -3447 -3448 -3449 -3450 -3451 0
-512 -2102 -3447 -3448 -3449 -3450 -3451 0
-2102 -3447 -3448 -3449 -3450 -3451 0
-802 3452 0
-814 3452 0
-1864 3452 0
802 814 1864 -3452 0
3453 -3452 0
-3453 3452 0
-804 3454 0
-816 3454 0
-1866 3454 0
-3453 3454 0
804 816 1866 3453 -3454 0
3455 -3454 0
3454 -3455 0
-804 -3453 0
-816 -3453 0
-1866 -3453 0
-803 3456 0
-815 3456 0
1865 3456 0
2110 3456 0
803 815 -1865 -2110 -3456 0
-803 3457 0
815 3457 0
-1865 3457 0
2110 3457 0
803 -815 1865 -2110 -3457 0
-803 3458 0
815 3458 0
1865 3458 0
-2110 3458 0
803 -815 -1865 2110 -3458 0
803 3459 0
-815 3459 0
-1865 3459 0
2110 3459 0
-803 815 1865 -2110 -3459 0
803 3460 0
-815 3460 0
1865 3460 0
-2110 3460 0
-803 815 -1865 2110 -3460 0
803 -815 -3456 -3457 -3458 -3459 -3460 0
803 -1865 -3456 -3457 -3458 -3459 -3460 0
803 -2110 -3456 -3457 -3458 -3459 -3460 0
-803 815 -3456 -3457 -3458 -3459 -3460 0
815 -1865 -3456 -3457 -3458 -3459 -3460 0
815 -2110 -3456 -3457 -3458 -3459 -3460 0
-803 -1865 -3456 -3457 -3458 -3459 -3460 0
-815 -1865 -3456 -3457 -3458 -3459 -3460 0
-1865 -3456 -3457 -3458 -3459 -3460 0
-1865 -2110 -3456 -3457 -3458 -3459 -3460 0
-803 -2110 -3456 -3457 -3458 -3459 -3460 0
-815 -2110 -3456 -3457 -3458 -3459 -3460 0
-2110 -3456 -3457 -3458 -3459 -3460 0
-805 3461 0
-817 3461 0
1867 3461 0
2111 3461 0
805 817 -1867 -2111 -3461 0
-805 3462 0
817 3462 0
-1867 3462 0
2111 3462 0
805 -817 1867 -2111 -3462 0
-805 3463 0
817 3463 0
1867 3463 0
-2111 3463 0
805 -817 -1867 2111 -3463 0
805 3464 0
-817 3464 0
-1867 3464 0
2111 3464 0
-805 817 1867 -2111 -3464 0
805 3465 0
-817 3465 0
1867 3465 0
-2111 3465 0
-805 817 -1867 2111 -3465 0
805 -817 -3461 -3462 -3463 -3464 -3465 0
805 -1867 -3461 -3462 -3463 -3464 -3465 0
805 -2111 -3461 -3462 -3463 -3464 -3465 0
-805 817 -3461 -3462 -3463 -3464 -3465 0
817 -1867 -3461 -3462 -3463 -3464 -3465 0
817 -2111 -3461 -3462 -3463 -3464 -3465 0
-805 -1867 -3461 -3462 -3463 -3464 -3465 0
-817 -1867 -3461 -3462 -3463 -3464 -3465 0
-1867 -3461 -3462 -3463 -3464 -3465 0
-1867 -2111 -3461 -3462 -3463 -3464 -3465 0
-805 -2111 -3461 -3462 -3463 -3464 -3465 0
-817 -2111 -3461 -3462 -3463 -3464 -3465 0
-2111 -3461 -3462 -3463 -3464 -3465 0
-806 3466 0
-818 3466 0
1868 3466 0
2112 3466 0
806 818 -1868 -2112 -3466 0
-806 3467 0
818 3467 0
-1868 3467 0
2112 3467 0
806 -818 1868 -2112 -3467 0
-806 3468 0
818 3468 0
1868 3468 0
-2112 3468 0
806 -818 -1868 2112 -3468 0
806 3469 0
-818 3469 0
-1868 3469 0
2112 3469 0
-806 818 1868 -2112 -3469 0
806 3470 0
-818 3470 0
1868 3470 0
-2112 3470 0
-806 818 -1868 2112 -3470 0
806 -818 -3466 -3467 -3468 -3469 -3470 0
806 -1868 -3466 -3467 -3468 -3469 -3470 0
806 -2112 -3466 -3467 -3468 -3469 -3470 0
-806 818 -3466 -3467 -3468 -3469 -3470 0
818 -1868 -3466 -3467 -3468 -3469 -3470 0
818 -2112 -3466 -3467 -3468 -3469 -3470 0
-806 -1868 -3466 -3467 -3468 -3469 -3470 0
-818 -1868 -3466 -3467 -3468 -3469 -3470 0
-1868 -3466 -3467 -3468 -3469 -3470 0
-1868 -2112 -3466 -3467 -3468 -3469 -3470 0
-806 -2112 -3466 -3467 -3468 -3469 -3470 0
-818 -2112 -3466 -3467 -3468 -3469 -3470 0
-2112 -3466 -3467 -3468 -3469 -3470 0
-1108 3471 0
-1120 3471 0
-1876 3471 0
-2121 3471 0
1108 1120 1876 2121 -3471 0
3472 -3471 0
-3472 3471 0
-1110 3473 0
-1122 3473 0
-1878 3473 0
-2123 3473 0
-3472 3473 0
1110 1122 1878 2123 3472 -3473 0
3474 -3473 0
3473 -3474 0
-1110 -3472 0
-1122 -3472 0
-1878 -3472 0
-2123 -3472 0
-1109 3475 0
-1121 3475 0
1877 3475 0
2122 3475 0
1109 1121 -1877 -2122 -3475 0
-1109 3476 0
1121 3476 0
-1877 3476 0
2122 3476 0
1109 -1121 1877 -2122 -3476 0
-1109 3477 0
1121 3477 0
1877 3477 0
-2122 3477 0
1109 -1121 -1877 2122 -3477 0
1109 3478 0
-1121 3478 0
-1877 3478 0
2122 3478 0
-1109 1121 1877 -2122 -3478 0
1109 3479 0
-1121 3479 0
1877 3479 0
-2122 3479 0
-1109 1121 -1877 2122 -3479 0
1109 -1121 -3475 -3476 -3477 -3478 -3479 0
1109 -1877 -3475 -3476 -3477 -3478 -3479 0
1109 -2122 -3475 -3476 -3477 -3478 -3479 0
-1109 1121 -3475 -3476 -3477 -3478 -3479 0
1121 -1877 -3475 -3476 -3477 -3478 -3479 0
1121 -2122 -3475 -3476 -3477 -3478 -3479 0
-1109 -1877 -3475 -3476 -3477 -3478 -3479 0
-1121 -1877 -3475 -3476 -3477 -3478 -3479 0
-1877 -3475 -3476 -3477 -3478 -3479 0
-1877 -2122 -3475 -3476 -3477 -3478 -3479 0
-1109 -2122 -3475 -3476 -3477 -3478 -3479 0
-1121 -2122 -3475 -3476 -3477 -3478 -3479 0
-2122 -3475 -3476 -3477 -3478 -3479 0
-1111 3480 0
-1123 3480 0
1879 3480 0
2124 3480 0
1111 1123 -1879 -2124 -3480 0
-1111 3481 0
1123 3481 0
-1879 3481 0
2124 3481 0
1111 -1123 1879 -2124 -3481 0
-1111 3482 0
1123 3482 0
1879 3482 0
-2124 3482 0
1111 -1123 -1879 2124 -3482 0
1111 3483 0
-1123 3483 0
-1879 3483 0
2124 3483 0
-1111 1123 1879 -2124 -3483 0
1111 3484 0
-1123 3484 0
1879 3484 0
-2124 3484 0
-1111 1123 -1879 2124 -3484 0
1111 -1123 -3480 -3481 -3482 -3483 -3484 0
1111 -1879 -3480 -3481 -3482 -3483 -3484 0
1111 -2124 -3480 -3481 -3482 -3483 -3484 0
-1111 1123 -3480 -3481 -3482 -3483 -3484 0
1123 -1879 -3480 -3481 -3482 -3483 -3484 0
1123 -2124 -3480 -3481 -3482 -3483 -3484 0
-1111 -1879 -3480 -3481 -3482 -3483 -3484 0
-1123 -1879 -3480 -3481 -3482 -3483 -3484 0
-1879 -3480 -3481 -3482 -3483 -3484 0
-1879 -2124 -3480 -3481 -3482 -3483 -3484 0
-1111 -2124 -3480 -3481 -3482 -3483 -3484 0
-1123 -2124 -3480 -3481 -3482 -3483 -3484 0
-2124 -3480 -3481 -3482 -3483 -3484 0
-1112 3485 0
-1124 3485 0
1880 3485 0
2125 3485 0
1112 1124 -1880 -2125 -3485 0
-1112 3486 0
1124 3486 0
-1880 3486 0
2125 3486 0
1112 -1124 1880 -2125 -3486 0
-1112 3487 0
1124 3487 0
1880 3487 0
-2125 3487 0
1112 -1124 -1880 2125 -3487 0
1112 3488 0
-1124 3488 0
-1880 3488 0
2125 3488 0
-1112 1124 1880 -2125 -3488 0
1112 3489 0
-1124 3489 0
1880 3489 0
-2125 3489 0
-1112 1124 -1880 2125 -3489 0
1112 -1124 -3485 -3486 -3487 -3488 -3489 0
1112 -1880 -3485 -3486 -3487 -3488 -3489 0
1112 -2125 -3485 -3486 -3487 -3488 -3489 0
-1112 1124 -3485 -3486 -3487 -3488 -3489 0
1124 -1880 -3485 -3486 -3487 -3488 -3489 0
1124 -2125 -3485 -3486 -3487 -3488 -3489 0
-1112 -1880 -3485 -3486 -3487 -3488 -3489 0
-1124 -1880 -3485 -3486 -3487 -3488 -3489 0
-1880 -3485 -3486 -3487 -3488 -3489 0
-1880 -2125 -3485 -3486 -3487 -3488 -3489 0
-1112 -2125 -3485 -3486 -3487 -3488 -3489 0
-1124 -2125 -3485 -3486 -3487 -3488 -3489 0
-2125 -3485 -3486 -3487 -3488 -3489 0
-508 3490 0
-520 3490 0
508 520 -3490 0
3491 -3490 0
-3491 3490 0
-510 3492 0
-522 3492 0
-3491 3492 0
510 522 3491 -3492 0
3493 -3492 0
3492 -3493 0
-510 -3491 0
-522 -3491 0
509 -521 0
-509 521 0
523 -511 0
511 -523 0
524 -512 0
512 -524 0
-814 3494 0
-826 3494 0
814 826 -3494 0
3495 -3494 0
-3495 3494 0
-816 3496 0
-828 3496 0
-3495 3496 0
816 828 3495 -3496 0
3497 -3496 0
3496 -3497 0
-816 -3495 0
-828 -3495 0
827 -815 0
815 -827 0
829 -817 0
817 -829 0
830 -818 0
818 -830 0
-1120 3498 0
-1132 3498 0
1120 1132 -3498 0
3499 -3498 0
-3499 3498 0
-1122 3500 0
-1134 3500 0
-3499 3500 0
1122 1134 3499 -3500 0
3501 -3500 0
3500 -3501 0
-1122 -3499 0
-1134 -3499 0
1133 -1121 0
1121 -1133 0
1135 -1123 0
1123 -1135 0
1136 -1124 0
1124 -1136 0
-520 3502 0
-532 3502 0
520 532 -3502 0
3503 -3502 0
-3503 3502 0
-522 3504 0
-534 3504 0
-3503 3504 0
522 534 3503 -3504 0
3505 -3504 0
3504 -3505 0
-522 -3503 0
-534 -3503 0
533 -521 0
521 -533 0
535 -523 0
523 -535 0
536 -524 0
524 -536 0
-826 3506 0
-838 3506 0
826 838 -3506 0
3507 -3506 0
-3507 3506 0
-828 3508 0
-840 3508 0
-3507 3508 0
828 840 3507 -3508 0
3509 -3508 0
3508 -3509 0
-828 -3507 0
-840 -3507 0
839 -827 0
827 -839 0
841 -829 0
829 -841 0
842 -830 0
830 -842 0
-1132 3510 0
-1144 3510 0
1132 1144 -3510 0
3511 -3510 0
-3511 3510 0
-1134 3512 0
-1146 3512 0
-3511 3512 0
1134 1146 3511 -3512 0
3513 -3512 0
3512 -3513 0
-1134 -3511 0
-1146 -3511 0
1145 -1133 0
1133 -1145 0
1147 -1135 0
1135 -1147 0
1148 -1136 0
1136 -1148 0
-532 3514 0
-544 3514 0
532 544 -3514 0
3515 -3514 0
-3515 3514 0
-534 3516 0
-546 3516 0
-3515 3516 0
534 546 3515 -3516 0
3517 -3516 0
3516 -3517 0
-534 -3515 0
-546 -3515 0
545 -533 0
533 -545 0
547 -535 0
535 -547 0
548 -536 0
536 -548 0
-838 3518 0
-850 3518 0
838 850 -3518 0
3519 -3518 0
-3519 3518 0
-840 3520 0
-852 3520 0
-3519 3520 0
840 852 3519 -3520 0
3521 -3520 0
3520 -3521 0
-840 -3519 0
-852 -3519 0
851 -839 0
839 -851 0
853 -841 0
841 -853 0
854 -842 0
842 -854 0
-1144 3522 0
-1156 3522 0
1144 1156 -3522 0
3523 -3522 0
-3523 3522 0
-1146 3524 0
-1158 3524 0
-3523 3524 0
1146 1158 3523 -3524 0
3525 -3524 0
3524 -3525 0
-1146 -3523 0
-1158 -3523 0
1157 -1145 0
1145 -1157 0
1159 -1147 0
1147 -1159 0
1160 -1148 0
1148 -1160 0
-544 3526 0
-556 3526 0
-1888 3526 0
-2133 3526 0
544 556 1888 2133 -3526 0
3527 -3526 0
-3527 3526 0
-546 3528 0
-558 3528 0
-1890 3528 0
-2135 3528 0
-3527 3528 0
546 558 1890 2135 3527 -3528 0
3529 -3528 0
3528 -3529 0
-546 -3527 0
-558 -3527 0
-1890 -3527 0
-2135 -3527 0
-545 3530 0
-557 3530 0
1889 3530 0
2134 3530 0
545 557 -1889 -2134 -3530 0
-545 3531 0
557 3531 0
-1889 3531 0
2134 3531 0
545 -557 1889 -2134 -3531 0
-545 3532 0
557 3532 0
1889 3532 0
-2134 3532 0
545 -557 -1889 2134 -3532 0
545 3533 0
-557 3533 0
-1889 3533 0
2134 3533 0
-545 557 1889 -2134 -3533 0
545 3534 0
-557 3534 0
1889 3534 0
-2134 3534 0
-545 557 -1889 2134 -3534 0
545 -557 -3530 -3531 -3532 -3533 -3534 0
545 -1889 -3530 -3531 -3532 -3533 -3534 0
545 -2134 -3530 -3531 -3532 -3533 -3534 0
-545 557 -3530 -3531 -3532 -3533 -3534 0
557 -1889 -3530 -3531 -3532 -3533 -3534 0
557 -2134 -3530 -3531 -3532 -3533 -3534 0
-545 -1889 -3530 -3531 -3532 -3533 -3534 0
-557 -1889 -3530 -3531 -3532 -3533 -3534 0
-1889 -3530 -3531 -3532 -3533 -3534 0
-1889 -2134 -3530 -3531 -3532 -3533 -3534 0
-545 -2134 -3530 -3531 -3532 -3533 -3534 0
-557 -2134 -3530 -3531 -3532 -3533 -3534 0
-2134 -3530 -3531 -3532 -3533 -3534 0
-547 3535 0
-559 3535 0
1891 3535 0
2136 3535 0
547 559 -1891 -2136 -3535 0
-547 3536 0
559 3536 0
-1891 3536 0
2136 3536 0
547 -559 1891 -2136 -3536 0
-547 3537 0
559 3537 0
1891 3537 0
-2136 3537 0
547 -559 -1891 2136 -3537 0
547 3538 0
-559 3538 0
-1891 3538 0
2136 3538 0
-547 559 1891 -2136 -3538 0
547 3539 0
-559 3539 0
1891 3539 0
-2136 3539 0
-547 559 -1891 2136 -3539 0
547 -559 -3535 -3536 -3537 -3538 -3539 0
547 -1891 -3535 -3536 -3537 -3538 -3539 0
547 -2136 -3535 -3536 -3537 -3538 -3539 0
-547 559 -3535 -3536 -3537 -3538 -3539 0
559 -1891 -3535 -3536 -3537 -3538 -3539 0
559 -2136 -3535 -3536 -3537 -3538 -3539 0
-547 -1891 -3535 -3536 -3537 -3538 -3539 0
-559 -1891 -3535 -3536 -3537 -3538 -3539 0
-1891 -3535 -3536 -3537 -3538 -3539 0
-1891 -2136 -3535 -3536 -3537 -3538 -3539 0
-547 -2136 -3535 -3536 -3537 -3538 -3539 0
-559 -2136 -3535 -3536 -3537 -3538 -3539 0
-2136 -3535 -3536 -3537 -3538 -3539 0
-548 3540 0
-560 3540 0
1892 3540 0
2137 3540 0
548 560 -1892 -2137 -3540 0
-548 3541 0
560 3541 0
-1892 3541 0
2137 3541 0
548 -560 1892 -2137 -3541 0
-548 3542 0
560 3542 0
1892 3542 0
-2137 3542 0
548 -560 -1892 2137 -3542 0
548 3543 0
-560 3543 0
-1892 3543 0
2137 3543 0
-548 560 1892 -2137 -3543 0
548 3544 0
-560 3544 0
1892 3544 0
-2137 3544 0
-548 560 -1892 2137 -3544 0
548 -560 -3540 -3541 -3542 -3543 -3544 0
548 -1892 -3540 -3541 -3542 -3543 -3544 0
548 -2137 -3540 -3541 -3542 -3543 -3544 0
-548 560 -3540 -3541 -3542 -3543 -3544 0
560 -1892 -3540 -3541 -3542 -3543 -3544 0
560 -2137 -3540 -3541 -3542 -3543 -3544 0
-548 -1892 -3540 -3541 -3542 -3543 -3544 0
-560 -1892 -3540 -3541 -3542 -3543 -3544 0
-1892 -3540 -3541 -3542 -3543 -3544 0
-1892 -2137 -3540 -3541 -3542 -3543 -3544 0
-548 -2137 -3540 -3541 -3542 -3543 -3544 0
-560 -2137 -3540 -3541 -3542 -3543 -3544 0
-2137 -3540 -3541 -3542 -3543 -3544 0
-850 3545 0
-862 3545 0
-1900 3545 0
850 862 1900 -3545 0
3546 -3545 0
-3546 3545 0
-852 3547 0
-864 3547 0
-1902 3547 0
-3546 3547 0
852 864 1902 3546 -3547 0
3548 -3547 0
3547 -3548 0
-852 -3546 0
-864 -3546 0
-1902 -3546 0
-851 3549 0
-863 3549 0
1901 3549 0
2145 3549 0
851 863 -1901 -2145 -3549 0
-851 3550 0
863 3550 0
-1901 3550 0
2145 3550 0
851 -863 1901 -2145 -3550 0
-851 3551 0
863 3551 0
1901 3551 0
-2145 3551 0
851 -863 -1901 2145 -3551 0
851 3552 0
-863 3552 0
-1901 3552 0
2145 3552 0
-851 863 1901 -2145 -3552 0
851 3553 0
-863 3553 0
1901 3553 0
-2145 3553 0
-851 863 -1901 2145 -3553 0
851 -863 -3549 -3550 -3551 -3552 -3553 0
851 -1901 -3549 -3550 -3551 -3552 -3553 0
851 -2145 -3549 -3550 -3551 -3552 -3553 0
-851 863 -3549 -3550 -3551 -3552 -3553 0
863 -1901 -3549 -3550 -3551 -3552 -3553 0
863 -2145 -3549 -3550 -3551 -3552 -3553 0
-851 -1901 -3549 -3550 -3551 -3552 -3553 0
-863 -1901 -3549 -3550 -3551 -3552 -3553 0
-1901 -3549 -3550 -3551 -3552 -3553 0
-1901 -2145 -3549 -3550 -3551 -3552 -3553 0
-851 -2145 -3549 -3550 -3551 -3552 -3553 0
-863 -2145 -3549 -3550 -3551 -3552 -3553 0
-2145 -3549 -3550 -3551 -3552 -3553 0
-853 3554 0
-865 3554 0
1903 3554 0
2146 3554 0
853 865 -1903 -2146 -3554 0
-853 3555 0
865 3555 0
-1903 3555 0
2146 3555 0
853 -865 1903 -2146 -3555 0
-853 3556 0
865 3556 0
1903 3556 0
-2146 3556 0
853 -865 -1903 2146 -3556 0
853 3557 0
-865 3557 0
-1903 3557 0
2146 3557 0
-853 865 1903 -2146 -3557 0
853 3558 0
-865 3558 0
1903 3558 0
-2146 3558 0
-853 865 -1903 2146 -3558 0
853 -865 -3554 -3555 -3556 -3557 -3558 0
853 -1903 -3554 -3555 -3556 -3557 -3558 0
853 -2146 -3554 -3555 -3556 -3557 -3558 0
-853 865 -3554 -3555 -3556 -3557 -3558 0
865 -1903 -3554 -3555 -3556 -3557 -3558 0
865 -2146 -3554 -3555 -3556 -3557 -3558 0
-853 -1903 -3554 -3555 -3556 -3557 -3558 0
-865 -1903 -3554 -3555 -3556 -3557 -3558 0
-1903 -3554 -3555 -3556 -3557 -3558 0
-1903 -2146 -3554 -3555 -3556 -3557 -3558 0
-853 -2146 -3554 -3555 -3556 -3557 -3558 0
-865 -2146 -3554 -3555 -3556 -3557 -3558 0
-2146 -3554 -3555 -3556 -3557 -3558 0
-854 3559 0
-866 3559 0
1904 3559 0
2147 3559 0
854 866 -1904 -2147 -3559 0
-854 3560 0
866 3560 0
-1904 3560 0
2147 3560 0
854 -866 1904 -2147 -3560 0
-854 3561 0
866 3561 0
1904 3561 0
-2147 3561 0
854 -866 -1904 2147 -3561 0
854 3562 0
-866 3562 0
-1904 3562 0
2147 3562 0
-854 866 1904 -2147 -3562 0
854 3563 0
-866 3563 0
1904 3563 0
-2147 3563 0
-854 866 -1904 2147 -3563 0
854 -866 -3559 -3560 -3561 -3562 -3563 0
854 -1904 -3559 -3560 -3561 -3562 -3563 0
854 -2147 -3559 -3560 -3561 -3562 -3563 0
-854 866 -3559 -3560 -3561 -3562 -3563 0
866 -1904 -3559 -3560 -3561 -3562 -3563 0
866 -2147 -3559 -3560 -3561 -3562 -3563 0
-854 -1904 -3559 -3560 -3561 -3562 -3563 0
-866 -1904 -3559 -3560 -3561 -3562 -3563 0
-1904 -3559 -3560 -3561 -3562 -3563 0
-1904 -2147 -3559 -3560 -3561 -3562 -3563 0
-854 -2147 -3559 -3560 -3561 -3562 -3563 0
-866 -2147 -3559 -3560 -3561 -3562 -3563 0
-2147 -3559 -3560 -3561 -3562 -3563 0
-1156 3564 0
-1168 3564 0
-1912 3564 0
-2156 3564 0
1156 1168 1912 2156 -3564 0
3565 -3564 0
-3565 3564 0
-1158 3566 0
-1170 3566 0
-1914 3566 0
-2158 3566 0
-3565 3566 0
1158 1170 1914 2158 3565 -3566 0
3567 -3566 0
3566 -3567 0
-1158 -3565 0
-1170 -3565 0
-1914 -3565 0
-2158 -3565 0
-1157 3568 0
-1169 3568 0
1913 3568 0
2157 3568 0
1157 1169 -1913 -2157 -3568 0
-1157 3569 0
1169 3569 0
-1913 3569 0
2157 3569 0
1157 -1169 1913 -2157 -3569 0
-1157 3570 0
1169 3570 0
1913 3570 0
-2157 3570 0
1157 -1169 -1913 2157 -3570 0
1157 3571 0
-1169 3571 0
-1913 3571 0
2157 3571 0
-1157 1169 1913 -2157 -3571 0
1157 3572 0
-1169 3572 0
1913 3572 0
-2157 3572 0
-1157 1169 -1913 2157 -3572 0
1157 -1169 -3568 -3569 -3570 -3571 -3572 0
1157 -1913 -3568 -3569 -3570 -3571 -3572 0
1157 -2157 -3568 -3569 -3570 -3571 -3572 0
-1157 1169 -3568 -3569 -3570 -3571 -3572 0
1169 -1913 -3568 -3569 -3570 -3571 -3572 0
1169 -2157 -3568 -3569 -3570 -3571 -3572 0
-1157 -1913 -3568 -3569 -3570 -3571 -3572 0
-1169 -1913 -3568 -3569 -3570 -3571 -3572 0
-1913 -3568 -3569 -3570 -3571 -3572 0
-1913 -2157 -3568 -3569 -3570 -3571 -3572 0
-1157 -2157 -3568 -3569 -3570 -3571 -3572 0
-1169 -2157 -3568 -3569 -3570 -3571 -3572 0
-2157 -3568 -3569 -3570 -3571 -3572 0
-1159 3573 0
-1171 3573 0
1915 3573 0
2159 3573 0
1159 1171 -1915 -2159 -3573 0
-1159 3574 0
1171 3574 0
-1915 3574 0
2159 3574 0
1159 -1171 1915 -2159 -3574 0
-1159 3575 0
1171 3575 0
1915 3575 0
-2159 3575 0
1159 -1171 -1915 2159 -3575 0
1159 3576 0
-1171 3576 0
-1915 3576 0
2159 3576 0
-1159 1171 1915 -2159 -3576 0
1159 3577 0
-1171 3577 0
1915 3577 0
-2159 3577 0
-1159 1171 -1915 2159 -3577 0
1159 -1171 -3573 -3574 -3575 -3576 -3577 0
1159 -1915 -3573 -3574 -3575 -3576 -3577 0
1159 -2159 -3573 -3574 -3575 -3576 -3577 0
-1159 1171 -3573 -3574 -3575 -3576 -3577 0
1171 -1915 -3573 -3574 -3575 -3576 -3577 0
1171 -2159 -3573 -3574 -3575 -3576 -3577 0
-1159 -1915 -3573 -3574 -3575 -3576 -3577 0
-1171 -1915 -3573 -3574 -3575 -3576 -3577 0
-1915 -3573 -3574 -3575 -3576 -3577 0
-1915 -2159 -3573 -3574 -3575 -3576 -3577 0
-1159 -2159 -3573 -3574 -3575 -3576 -3577 0
-1171 -2159 -3573 -3574 -3575 -3576 -3577 0
-2159 -3573 -3574 -3575 -3576 -3577 0
-1160 3578 0
-1172 3578 0
1916 3578 0
2160 3578 0
1160 1172 -1916 -2160 -3578 0
-1160 3579 0
1172 3579 0
-1916 3579 0
2160 3579 0
1160 -1172 1916 -2160 -3579 0
-1160 3580 0
1172 3580 0
1916 3580 0
-2160 3580 0
1160 -1172 -1916 2160 -3580 0
1160 3581 0
-1172 3581 0
-1916 3581 0
2160 3581 0
-1160 1172 1916 -2160 -3581 0
1160 3582 0
-1172 3582 0
1916 3582 0
-2160 3582 0
-1160 1172 -1916 2160 -3582 0
1160 -1172 -3578 -3579 -3580 -3581 -3582 0
1160 -1916 -3578 -3579 -3580 -3581 -3582 0
1160 -2160 -3578 -3579 -3580 -3581 -3582 0
-1160 1172 -3578 -3579 -3580 -3581 -3582 0
1172 -1916 -3578 -3579 -3580 -3581 -3582 0
1172 -2160 -3578 -3579 -3580 -3581 -3582 0
-1160 -1916 -3578 -3579 -3580 -3581 -3582 0
-1172 -1916 -3578 -3579 -3580 -3581 -3582 0
-1916 -3578 -3579 -3580 -3581 -3582 0
-1916 -2160 -3578 -3579 -3580 -3581 -3582 0
-1160 -2160 -3578 -3579 -3580 -3581 -3582 0
-1172 -2160 -3578 -3579 -3580 -3581 -3582 0
-2160 -3578 -3579 -3580 -3581 -3582 0
-556 3583 0
-568 3583 0
556 568 -3583 0
3584 -3583 0
-3584 3583 0
-558 3585 0
-570 3585 0
-3584 3585 0
558 570 3584 -3585 0
3586 -3585 0
3585 -3586 0
-558 -3584 0
-570 -3584 0
557 -569 0
-557 569 0
571 -559 0
559 -571 0
572 -560 0
560 -572 0
-862 3587 0
-874 3587 0
862 874 -3587 0
3588 -3587 0
-3588 3587 0
-864 3589 0
-876 3589 0
-3588 3589 0
864 876 3588 -3589 0
3590 -3589 0
3589 -3590 0
-864 -3588 0
-876 -3588 0
875 -863 0
863 -875 0
877 -865 0
865 -877 0
878 -866 0
866 -878 0
-1168 3591 0
-1180 3591 0
1168 1180 -3591 0
3592 -3591 0
-3592 3591 0
-1170 3593 0
-1182 3593 0
-3592 3593 0
1170 1182 3592 -3593 0
3594 -3593 0
3593 -3594 0
-1170 -3592 0
-1182 -3592 0
1181 -1169 0
1169 -1181 0
1183 -1171 0
1171 -1183 0
1184 -1172 0
1172 -1184 0
-568 3595 0
-580 3595 0
568 580 -3595 0
3596 -3595 0
-3596 3595 0
-570 3597 0
-582 3597 0
-3596 3597 0
570 582 3596 -3597 0
3598 -3597 0
3597 -3598 0
-570 -3596 0
-582 -3596 0
581 -569 0
569 -581 0
583 -571 0
571 -583 0
584 -572 0
572 -584 0
-874 3599 0
-886 3599 0
874 886 -3599 0
3600 -3599 0
-3600 3599 0
-876 3601 0
-888 3601 0
-3600 3601 0
876 888 3600 -3601 0
3602 -3601 0
3601 -3602 0
-876 -3600 0
-888 -3600 0
887 -875 0
875 -887 0
889 -877 0
877 -889 0
890 -878 0
878 -890 0
-1180 3603 0
-1192 3603 0
1180 1192 -3603 0
3604 -3603 0
-3604 3603 0
-1182 3605 0
-1194 3605 0
-3604 3605 0
1182 1194 3604 -3605 0
3606 -3605 0
3605 -3606 0
-1182 -3604 0
-1194 -3604 0
1193 -1181 0
1181 -1193 0
1195 -1183 0
1183 -1195 0
1196 -1184 0
1184 -1196 0
-580 3607 0
-592 3607 0
580 592 -3607 0
3608 -3607 0
-3608 3607 0
-582 3609 0
-594 3609 0
-3608 3609 0
582 594 3608 -3609 0
3610 -3609 0
3609 -3610 0
-582 -3608 0
-594 -3608 0
593 -581 0
581 -593 0
595 -583 0
583 -595 0
596 -584 0
584 -596 0
-886 3611 0
-898 3611 0
886 898 -3611 0
3612 -3611 0
-3612 3611 0
-888 3613 0
-900 3613 0
-3612 3613 0
888 900 3612 -3613 0
3614 -3613 0
3613 -3614 0
-888 -3612 0
-900 -3612 0
899 -887 0
887 -899 0
901 -889 0
889 -901 0
902 -890 0
890 -902 0
-1192 3615 0
-1204 3615 0
1192 1204 -3615 0
3616 -3615 0
-3616 3615 0
-1194 3617 0
-1206 3617 0
-3616 3617 0
1194 1206 3616 -3617 0
3618 -3617 0
3617 -3618 0
-1194 -3616 0
-1206 -3616 0
1205 -1193 0
1193 -1205 0
1207 -1195 0
1195 -1207 0
1208 -1196 0
1196 -1208 0
-592 3619 0
-604 3619 0
-1924 3619 0
-2168 3619 0
592 604 1924 2168 -3619 0
3620 -3619 0
-3620 3619 0
-594 3621 0
-606 3621 0
-1926 3621 0
-2170 3621 0
-3620 3621 0
594 606 1926 2170 3620 -3621 0
3622 -3621 0
3621 -3622 0
-594 -3620 0
-606 -3620 0
-1926 -3620 0
-2170 -3620 0
-593 3623 0
-605 3623 0
1925 3623 0
2169 3623 0
593 605 -1925 -2169 -3623 0
-593 3624 0
605 3624 0
-1925 3624 0
2169 3624 0
593 -605 1925 -2169 -3624 0
-593 3625 0
605 3625 0
1925 3625 0
-2169 3625 0
593 -605 -1925 2169 -3625 0
593 3626 0
-605 3626 0
-1925 3626 0
2169 3626 0
-593 605 1925 -2169 -3626 0
593 3627 0
-605 3627 0
1925 3627 0
-2169 3627 0
-593 605 -1925 2169 -3627 0
593 -605 -3623 -3624 -3625 -3626 -3627 0
593 -1925 -3623 -3624 -3625 -3626 -3627 0
593 -2169 -3623 -3624 -3625 -3626 -3627 0
-593 605 -3623 -3624 -3625 -3626 -3627 0
605 -1925 -3623 -3624 -3625 -3626 -3627 0
605 -2169 -3623 -3624 -3625 -3626 -3627 0
-593 -1925 -3623 -3624 -3625 -3626 -3627 0
-605 -1925 -3623 -3624 -3625 -3626 -3627 0
-1925 -3623 -3624 -3625 -3626 -3627 0
-1925 -2169 -3623 -3624 -3625 -3626 -3627 0
-593 -2169 -3623 -3624 -3625 -3626 -3627 0
-605 -2169 -3623 -3624 -3625 -3626 -3627 0
-2169 -3623 -3624 -3625 -3626 -3627 0
-595 3628 0
-607 3628 0
1927 3628 0
2171 3628 0
595 607 -1927 -2171 -3628 0
-595 3629 0
607 3629 0
-1927 3629 0
2171 3629 0
595 -607 1927 -2171 -3629 0
-595 3630 0
607 3630 0
1927 3630 0
-2171 3630 0
595 -607 -1927 2171 -3630 0
595 3631 0
-607 3631 0
-1927 3631 0
2171 3631 0
-595 607 1927 -2171 -3631 0
595 3632 0
-607 3632 0
1927 3632 0
-2171 3632 0
-595 607 -1927 2171 -3632 0
595 -607 -3628 -3629 -3630 -3631 -3632 0
595 -1927 -3628 -3629 -3630 -3631 -3632 0
595 -2171 -3628 -3629 -3630 -3631 -3632 0
-595 607 -3628 -3629 -3630 -3631 -3632 0
607 -1927 -3628 -3629 -3630 -3631 -3632 0
607 -2171 -3628 -3629 -3630 -3631 -3632 0
-595 -1927 -3628 -3629 -3630 -3631 -3632 0
-607 -1927 -3628 -3629 -3630 -3631 -3632 0
-1927 -3628 -3629 -3630 -3631 -3632 0
-1927 -2171 -3628 -3629 -3630 -3631 -3632 0
-595 -2171 -3628 -3629 -3630 -3631 -3632 0
-607 -2171 -3628 -3629 -3630 -3631 -3632 0
-2171 -3628 -3629 -3630 -3631 -3632 0
-596 3633 0
-608 3633 0
1928 3633 0
2172 3633 0
596 608 -1928 -2172 -3633 0
-596 3634 0
608 3634 0
-1928 3634 0
2172 3634 0
596 -608 1928 -2172 -3634 0
-596 3635 0
608 3635 0
1928 3635 0
-2172 3635 0
596 -608 -1928 2172 -3635 0
596 3636 0
-608 3636 0
-1928 3636 0
2172 3636 0
-596 608 1928 -2172 -3636 0
596 3637 0
-608 3637 0
1928 3637 0
-2172 3637 0
-596 608 -1928 2172 -3637 0
596 -608 -3633 -3634 -3635 -3636 -3637 0
596 -1928 -3633 -3634 -3635 -3636 -3637 0
596 -2172 -3633 -3634 -3635 -3636 -3637 0
-596 608 -3633 -3634 -3635 -3636 -3637 0
608 -1928 -3633 -3634 -3635 -3636 -3637 0
608 -2172 -3633 -3634 -3635 -3636 -3637 0
-596 -1928 -3633 -3634 -3635 -3636 -3637 0
-608 -1928 -3633 -3634 -3635 -3636 -3637 0
-1928 -3633 -3634 -3635 -3636 -3637 0
-1928 -2172 -3633 -3634 -3635 -3636 -3637 0
-596 -2172 -3633 -3634 -3635 -3636 -3637 0
-608 -2172 -3633 -3634 -3635 -3636 -3637 0
-2172 -3633 -3634 -3635 -3636 -3637 0
-898 3638 0
-910 3638 0
-1936 3638 0
898 910 1936 -3638 0
3639 -3638 0
-3639 3638 0
-900 3640 0
-912 3640 0
-1938 3640 0
-3639 3640 0
900 912 1938 3639 -3640 0
3641 -3640 0
3640 -3641 0
-900 -3639 0
-912 -3639 0
-1938 -3639 0
-899 3642 0
-911 3642 0
1937 3642 0
2180 3642 0
899 911 -1937 -2180 -3642 0
-899 3643 0
911 3643 0
-1937 3643 0
2180 3643 0
899 -911 1937 -2180 -3643 0
-899 3644 0
911 3644 0
1937 3644 0
-2180 3644 0
899 -911 -1937 2180 -3644 0
899 3645 0
-911 3645 0
-1937 3645 0
2180 3645 0
-899 911 1937 -2180 -3645 0
899 3646 0
-911 3646 0
1937 3646 0
-2180 3646 0
-899 911 -1937 2180 -3646 0
899 -911 -3642 -3643 -3644 -3645 -3646 0
899 -1937 -3642 -3643 -3644 -3645 -3646 0
899 -2180 -3642 -3643 -3644 -3645 -3646 0
-899 911 -3642 -3643 -3644 -3645 -3646 0
911 -1937 -3642 -3643 -3644 -3645 -3646 0
911 -2180 -3642 -3643 -3644 -3645 -3646 0
-899 -1937 -3642 -3643 -3644 -3645 -3646 0
-911 -1937 -3642 -3643 -3644 -3645 -3646 0
-1937 -3642 -3643 -3644 -3645 -3646 0
-1937 -2180 -3642 -3643 -3644 -3645 -3646 0
-899 -2180 -3642 -3643 -3644 -3645 -3646 0
-911 -2180 -3642 -3643 -3644 -3645 -3646 0
-2180 -3642 -3643 -3644 -3645 -3646 0
-901 3647 0
-913 3647 0
1939 3647 0
2181 3647 0
901 913 -1939 -2181 -3647 0
-901 3648 0
913 3648 0
-1939 3648 0
2181 3648 0
901 -913 1939 -2181 -3648 0
-901 3649 0
913 3649 0
1939 3649 0
-2181 3649 0
901 -913 -1939 2181 -3649 0
901 3650 0
-913 3650 0
-1939 3650 0
2181 3650 0
-901 913 1939 -2181 -3650 0
901 3651 0
-913 3651 0
1939 3651 0
-2181 3651 0
-901 913 -1939 2181 -3651 0
901 -913 -3647 -3648 -3649 -3650 -3651 0
901 -1939 -3647 -3648 -3649 -3650 -3651 0
901 -2181 -3647 -3648 -3649 -3650 -3651 0
-901 913 -3647 -3648 -3649 -3650 -3651 0
913 -1939 -3647 -3648 -3649 -3650 -3651 0
913 -2181 -3647 -3648 -3649 -3650 -3651 0
-901 -1939 -3647 -3648 -3649 -3650 -3651 0
-913 -1939 -3647 -3648 -3649 -3650 -3651 0
-1939 -3647 -3648 -3649 -3650 -3651 0
-1939 -2181 -3647 -3648 -3649 -3650 -3651 0
-901 -2181 -3647 -3648 -3649 -3650 -3651 0
-913 -2181 -3647 -3648 -3649 -3650 -3651 0
-2181 -3647 -3648 -3649 -3650 -3651 0
-902 3652 0
-914 3652 0
1940 3652 0
2182 3652 0
902 914 -1940 -2182 -3652 0
-902 3653 0
914 3653 0
-1940 3653 0
2182 3653 0
902 -914 1940 -2182 -3653 0
-902 3654 0
914 3654 0
1940 3654 0
-2182 3654 0
902 -914 -1940 2182 -3654 0
902 3655 0
-914 3655 0
-1940 3655 0
2182 3655 0
-902 914 1940 -2182 -3655 0
902 3656 0
-914 3656 0
1940 3656 0
-2182 3656 0
-902 914 -1940 2182 -3656 0
902 -914 -3652 -3653 -3654 -3655 -3656 0
902 -1940 -3652 -3653 -3654 -3655 -3656 0
902 -2182 -3652 -3653 -3654 -3655 -3656 0
-902 914 -3652 -3653 -3654 -3655 -3656 0
914 -1940 -3652 -3653 -3654 -3655 -3656 0
914 -2182 -3652 -3653 -3654 -3655 -3656 0
-902 -1940 -3652 -3653 -3654 -3655 -3656 0
-914 -1940 -3652 -3653 -3654 -3655 -3656 0
-1940 -3652 -3653 -3654 -3655 -3656 0
-1940 -2182 -3652 -3653 -3654 -3655 -3656 0
-902 -2182 -3652 -3653 -3654 -3655 -3656 0
-914 -2182 -3652 -3653 -3654 -3655 -3656 0
-2182 -3652 -3653 -3654 -3655 -3656 0
-1204 3657 0
-1216 3657 0
-1948 3657 0
-2191 3657 0
1204 1216 1948 2191 -3657 0
3658 -3657 0
-3658 3657 0
-1206 3659 0
-1218 3659 0
-1950 3659 0
-2193 3659 0
-3658 3659 0
1206 1218 1950 2193 3658 -3659 0
3660 -3659 0
3659 -3660 0
-1206 -3658 0
-1218 -3658 0
-1950 -3658 0
-2193 -3658 0
-1205 3661 0
-1217 3661 0
1949 3661 0
2192 3661 0
1205 1217 -1949 -2192 -3661 0
-1205 3662 0
1217 3662 0
-1949 3662 0
2192 3662 0
1205 -1217 1949 -2192 -3662 0
-1205 3663 0
1217 3663 0
1949 3663 0
-2192 3663 0
1205 -1217 -1949 2192 -3663 0
1205 3664 0
-1217 3664 0
-1949 3664 0
2192 3664 0
-1205 1217 1949 -2192 -3664 0
1205 3665 0
-1217 3665 0
1949 3665 0
-2192 3665 0
-1205 1217 -1949 2192 -3665 0
1205 -1217 -3661 -3662 -3663 -3664 -3665 0
1205 -1949 -3661 -3662 -3663 -3664 -3665 0
1205 -2192 -3661 -3662 -3663 -3664 -3665 0
-1205 1217 -3661 -3662 -3663 -3664 -3665 0
1217 -1949 -3661 -3662 -3663 -3664 -3665 0
1217 -2192 -3661 -3662 -3663 -3664 -3665 0
-1205 -1949 -3661 -3662 -3663 -3664 -3665 0
-1217 -1949 -3661 -3662 -3663 -3664 -3665 0
-1949 -3661 -3662 -3663 -3664 -3665 0
-1949 -2192 -3661 -3662 -3663 -3664 -3665 0
-1205 -2192 -3661 -3662 -3663 -3664 -3665 0
-1217 -2192 -3661 -3662 -3663 -3664 -3665 0
-2192 -3661 -3662 -3663 -3664 -3665 0
-1207 3666 0
-1219 3666 0
1951 3666 0
2194 3666 0
1207 1219 -1951 -2194 -3666 0
-1207 3667 0
1219 3667 0
-1951 3667 0
2194 3667 0
1207 -1219 1951 -2194 -3667 0
-1207 3668 0
1219 3668 0
1951 3668 0
-2194 3668 0
1207 -1219 -1951 2194 -3668 0
1207 3669 0
-1219 3669 0
-1951 3669 0
2194 3669 0
-1207 1219 1951 -2194 -3669 0
1207 3670 0
-1219 3670 0
1951 3670 0
-2194 3670 0
-1207 1219 -1951 2194 -3670 0
1207 -1219 -3666 -3667 -3668 -3669 -3670 0
1207 -1951 -3666 -3667 -3668 -3669 -3670 0
1207 -2194 -3666 -3667 -3668 -3669 -3670 0
-1207 1219 -3666 -3667 -3668 -3669 -3670 0
1219 -1951 -3666 -3667 -3668 -3669 -3670 0
1219 -2194 -3666 -3667 -3668 -3669 -3670 0
-1207 -1951 -3666 -3667 -3668 -3669 -3670 0
-1219 -1951 -3666 -3667 -3668 -3669 -3670 0
-1951 -3666 -3667 -3668 -3669 -3670 0
-1951 -2194 -3666 -3667 -3668 -3669 -3670 0
-1207 -2194 -3666 -3667 -3668 -3669 -3670 0
-1219 -2194 -3666 -3667 -3668 -3669 -3670 0
-2194 -3666 -3667 -3668 -3669 -3670 0
-1208 3671 0
-1220 3671 0
1952 3671 0
2195 3671 0
1208 1220 -1952 -2195 -3671 0
-1208 3672 0
1220 3672 0
-1952 3672 0
2195 3672 0
1208 -1220 1952 -2195 -3672 0
-1208 3673 0
1220 3673 0
1952 3673 0
-2195 3673 0
1208 -1220 -1952 2195 -3673 0
1208 3674 0
-1220 3674 0
-1952 3674 0
2195 3674 0
-1208 1220 1952 -2195 -3674 0
1208 3675 0
-1220 3675 0
1952 3675 0
-2195 3675 0
-1208 1220 -1952 2195 -3675 0
1208 -1220 -3671 -3672 -3673 -3674 -3675 0
1208 -1952 -3671 -3672 -3673 -3674 -3675 0
1208 -2195 -3671 -3672 -3673 -3674 -3675 0
-1208 1220 -3671 -3672 -3673 -3674 -3675 0
1220 -1952 -3671 -3672 -3673 -3674 -3675 0
1220 -2195 -3671 -3672 -3673 -3674 -3675 0
-1208 -1952 -3671 -3672 -3673 -3674 -3675 0
-1220 -1952 -3671 -3672 -3673 -3674 -3675 0
-1952 -3671 -3672 -3673 -3674 -3675 0
-1952 -2195 -3671 -3672 -3673 -3674 -3675 0
-1208 -2195 -3671 -3672 -3673 -3674 -3675 0
-1220 -2195 -3671 -3672 -3673 -3674 -3675 0
-2195 -3671 -3672 -3673 -3674 -3675 0
-604 3676 0
-616 3676 0
604 616 -3676 0
3677 -3676 0
-3677 3676 0
-606 3678 0
-618 3678 0
-3677 3678 0
606 618 3677 -3678 0
3679 -3678 0
3678 -3679 0
-606 -3677 0
-618 -3677 0
605 -617 0
-605 617 0
619 -607 0
607 -619 0
620 -608 0
608 -620 0
-910 3680 0
-922 3680 0
910 922 -3680 0
3681 -3680 0
-3681 3680 0
-912 3682 0
-924 3682 0
-3681 3682 0
912 924 3681 -3682 0
3683 -3682 0
3682 -3683 0
-912 -3681 0
-924 -3681 0
923 -911 0
911 -923 0
925 -913 0
913 -925 0
926 -914 0
914 -926 0
-1216 3684 0
-1228 3684 0
1216 1228 -3684 0
3685 -3684 0
-3685 3684 0
-1218 3686 0
-1230 3686 0
-3685 3686 0
1218 1230 3685 -3686 0
3687 -3686 0
3686 -3687 0
-1218 -3685 0
-1230 -3685 0
1229 -1217 0
1217 -1229 0
1231 -1219 0
1219 -1231 0
1232 -1220 0
1220 -1232 0
-616 3688 0
-628 3688 0
616 628 -3688 0
3689 -3688 0
-3689 3688 0
-618 3690 0
-630 3690 0
-3689 3690 0
618 630 3689 -3690 0
3691 -3690 0
3690 -3691 0
-618 -3689 0
-630 -3689 0
629 -617 0
617 -629 0
631 -619 0
619 -631 0
632 -620 0
620 -632 0
-922 3692 0
-934 3692 0
922 934 -3692 0
3693 -3692 0
-3693 3692 0
-924 3694 0
-936 3694 0
-3693 3694 0
924 936 3693 -3694 0
3695 -3694 0
3694 -3695 0
-924 -3693 0
-936 -3693 0
935 -923 0
923 -935 0
937 -925 0
925 -937 0
938 -926 0
926 -938 0
-1228 3696 0
-1240 3696 0
1228 1240 -3696 0
3697 -3696 0
-3697 3696 0
-1230 3698 0
-1242 3698 0
-3697 3698 0
1230 1242 3697 -3698 0
3699 -3698 0
3698 -3699 0
-1230 -3697 0
-1242 -3697 0
1241 -1229 0
1229 -1241 0
1243 -1231 0
1231 -1243 0
1244 -1232 0
1232 -1244 0
-628 3700 0
-640 3700 0
628 640 -3700 0
3701 -3700 0
-3701 3700 0
-630 3702 0
-642 3702 0
-3701 3702 0
630 642 3701 -3702 0
3703 -3702 0
3702 -3703 0
-630 -3701 0
-642 -3701 0
641 -629 0
629 -641 0
643 -631 0
631 -643 0
644 -632 0
632 -644 0
-934 3704 0
-946 3704 0
934 946 -3704 0
3705 -3704 0
-3705 3704 0
-936 3706 0
-948 3706 0
-3705 3706 0
936 948 3705 -3706 0
3707 -3706 0
3706 -3707 0
-936 -3705 0
-948 -3705 0
947 -935 0
935 -947 0
949 -937 0
937 -949 0
950 -938 0
938 -950 0
-1240 3708 0
-1252 3708 0
1240 1252 -3708 0
3709 -3708 0
-3709 3708 0
-1242 3710 0
-1254 3710 0
-3709 3710 0
1242 1254 3709 -3710 0
3711 -3710 0
3710 -3711 0
-1242 -3709 0
-1254 -3709 0
1253 -1241 0
1241 -1253 0
1255 -1243 0
1243 -1255 0
1256 -1244 0
1244 -1256 0
-640 3712 0
-652 3712 0
-1960 3712 0
-2203 3712 0
640 652 1960 2203 -3712 0
3713 -3712 0
-3713 3712 0
-642 3714 0
-654 3714 0
-1962 3714 0
-2205 3714 0
-3713 3714 0
642 654 1962 2205 3713 -3714 0
3715 -3714 0
3714 -3715 0
-642 -3713 0
-654 -3713 0
-1962 -3713 0
-2205 -3713 0
-641 3716 0
-653 3716 0
1961 3716 0
2204 3716 0
641 653 -1961 -2204 -3716 0
-641 3717 0
653 3717 0
-1961 3717 0
2204 3717 0
641 -653 1961 -2204 -3717 0
-641 3718 0
653 3718 0
1961 3718 0
-2204 3718 0
641 -653 -1961 2204 -3718 0
641 3719 0
-653 3719 0
-1961 3719 0
2204 3719 0
-641 653 1961 -2204 -3719 0
641 3720 0
-653 3720 0
1961 3720 0
-2204 3720 0
-641 653 -1961 2204 -3720 0
641 -653 -3716 -3717 -3718 -3719 -3720 0
641 -1961 -3716 -3717 -3718 -3719 -3720 0
641 -2204 -3716 -3717 -3718 -3719 -3720 0
-641 653 -3716 -3717 -3718 -3719 -3720 0
653 -1961 -3716 -3717 -3718 -3719 -3720 0
653 -2204 -3716 -3717 -3718 -3719 -3720 0
-641 -1961 -3716 -3717 -3718 -3719 -3720 0
-653 -1961 -3716 -3717 -3718 -3719 -3720 0
-1961 -3716 -3717 -3718 -3719 -3720 0
-1961 -2204 -3716 -3717 -3718 -3719 -3720 0
-641 -2204 -3716 -3717 -3718 -3719 -3720 0
-653 -2204 -3716 -3717 -3718 -3719 -3720 0
-2204 -3716 -3717 -3718 -3719 -3720 0
-643 3721 0
-655 3721 0
1963 3721 0
2206 3721 0
643 655 -1963 -2206 -3721 0
-643 3722 0
655 3722 0
-1963 3722 0
2206 3722 0
643 -655 1963 -2206 -3722 0
-643 3723 0
655 3723 0
1963 3723 0
-2206 3723 0
643 -655 -1963 2206 -3723 0
643 3724 0
-655 3724 0
-1963 3724 0
2206 3724 0
-643 655 1963 -2206 -3724 0
643 3725 0
-655 3725 0
1963 3725 0
-2206 3725 0
-643 655 -1963 2206 -3725 0
643 -655 -3721 -3722 -3723 -3724 -3725 0
643 -1963 -3721 -3722 -3723 -3724 -3725 0
643 -2206 -3721 -3722 -3723 -3724 -3725 0
-643 655 -3721 -3722 -3723 -3724 -3725 0
655 -1963 -3721 -3722 -3723 -3724 -3725 0
655 -2206 -3721 -3722 -3723 -3724 -3725 0
-643 -1963 -3721 -3722 -3723 -3724 -3725 0
-655 -1963 -3721 -3722 -3723 -3724 -3725 0
-1963 -3721 -3722 -3723 -3724 -3725 0
-1963 -2206 -3721 -3722 -3723 -3724 -3725 0
-643 -2206 -3721 -3722 -3723 -3724 -3725 0
-655 -2206 -3721 -3722 -3723 -3724 -3725 0
-2206 -3721 -3722 -3723 -3724 -3725 0
-644 3726 0
-656 3726 0
1964 3726 0
2207 3726 0
644 656 -1964 -2207 -3726 0
-644 3727 0
656 3727 0
-1964 3727 0
2207 3727 0
644 -656 1964 -2207 -3727 0
-644 3728 0
656 3728 0
1964 3728 0
-2207 3728 0
644 -656 -1964 2207 -3728 0
644 3729 0
-656 3729 0
-1964 3729 0
2207 3729 0
-644 656 1964 -2207 -3729 0
644 3730 0
-656 3730 0
1964 3730 0
-2207 3730 0
-644 656 -1964 2207 -3730 0
644 -656 -3726 -3727 -3728 -3729 -3730 0
644 -1964 -3726 -3727 -3728 -3729 -3730 0
644 -2207 -3726 -3727 -3728 -3729 -3730 0
-644 656 -3726 -3727 -3728 -3729 -3730 0
656 -1964 -3726 -3727 -3728 -3729 -3730 0
656 -2207 -3726 -3727 -3728 -3729 -3730 0
-644 -1964 -3726 -3727 -3728 -3729 -3730 0
-656 -1964 -3726 -3727 -3728 -3729 -3730 0
-1964 -3726 -3727 -3728 -3729 -3730 0
-1964 -2207 -3726 -3727 -3728 -3729 -3730 0
-644 -2207 -3726 -3727 -3728 -3729 -3730 0
-656 -2207 -3726 -3727 -3728 -3729 -3730 0
-2207 -3726 -3727 -3728 -3729 -3730 0
-946 3731 0
-958 3731 0
-1972 3731 0
946 958 1972 -3731 0
3732 -3731 0
-3732 3731 0
-948 3733 0
-960 3733 0
-1974 3733 0
-3732 3733 0
948 960 1974 3732 -3733 0
3734 -3733 0
3733 -3734 0
-948 -3732 0
-960 -3732 0
-1974 -3732 0
-947 3735 0
-959 3735 0
1973 3735 0
2215 3735 0
947 959 -1973 -2215 -3735 0
-947 3736 0
959 3736 0
-1973 3736 0
2215 3736 0
947 -959 1973 -2215 -3736 0
-947 3737 0
959 3737 0
1973 3737 0
-2215 3737 0
947 -959 -1973 2215 -3737 0
947 3738 0
-959 3738 0
-1973 3738 0
2215 3738 0
-947 959 1973 -2215 -3738 0
947 3739 0
-959 3739 0
1973 3739 0
-2215 3739 0
-947 959 -1973 2215 -3739 0
947 -959 -3735 -3736 -3737 -3738 -3739 0
947 -1973 -3735 -3736 -3737 -3738 -3739 0
947 -2215 -3735 -3736 -3737 -3738 -3739 0
-947 959 -3735 -3736 -3737 -3738 -3739 0
959 -1973 -3735 -3736 -3737 -3738 -3739 0
959 -2215 -3735 -3736 -3737 -3738 -3739 0
-947 -1973 -3735 -3736 -3737 -3738 -3739 0
-959 -1973 -3735 -3736 -3737 -3738 -3739 0
-1973 -3735 -3736 -3737 -3738 -3739 0
-1973 -2215 -3735 -3736 -3737 -3738 -3739 0
-947 -2215 -3735 -3736 -3737 -3738 -3739 0
-959 -2215 -3735 -3736 -3737 -3738 -3739 0
-2215 -3735 -3736 -3737 -3738 -3739 0
-949 3740 0
-961 3740 0
1975 3740 0
2216 3740 0
949 961 -1975 -2216 -3740 0
-949 3741 0
961 3741 0
-1975 3741 0
2216 3741 0
949 -961 1975 -2216 -3741 0
-949 3742 0
961 3742 0
1975 3742 0
-2216 3742 0
949 -961 -1975 2216 -3742 0
949 3743 0
-961 3743 0
-1975 3743 0
2216 3743 0
-949 961 1975 -2216 -3743 0
949 3744 0
-961 3744 0
1975 3744 0
-2216 3744 0
-949 961 -1975 2216 -3744 0
949 -961 -3740 -3741 -3742 -3743 -3744 0
949 -1975 -3740 -3741 -3742 -3743 -3744 0
949 -2216 -3740 -3741 -3742 -3743 -3744 0
-949 961 -3740 -3741 -3742 -3743 -3744 0
961 -1975 -3740 -3741 -3742 -3743 -3744 0
961 -2216 -3740 -3741 -3742 -3743 -3744 0
-949 -1975 -3740 -3741 -3742 -3743 -3744 0
-961 -1975 -3740 -3741 -3742 -3743 -3744 0
-1975 -3740 -3741 -3742 -3743 -3744 0
-1975 -2216 -3740 -3741 -3742 -3743 -3744 0
-949 -2216 -3740 -3741 -3742 -3743 -3744 0
-961 -2216 -3740 -3741 -3742 -3743 -3744 0
-2216 -3740 -3741 -3742 -3743 -3744 0
-950 3745 0
-962 3745 0
1976 3745 0
2217 3745 0
950 962 -1976 -2217 -3745 0
-950 3746 0
962 3746 0
-1976 3746 0
2217 3746 0
950 -962 1976 -2217 -3746 0
-950 3747 0
962 3747 0
1976 3747 0
-2217 3747 0
950 -962 -1976 2217 -3747 0
950 3748 0
-962 3748 0
-1976 3748 0
2217 3748 0
-950 962 1976 -2217 -3748 0
950 3749 0
-962 3749 0
1976 3749 0
-2217 3749 0
-950 962 -1976 2217 -3749 0
950 -962 -3745 -3746 -3747 -3748 -3749 0
950 -1976 -3745 -3746 -3747 -3748 -3749 0
950 -2217 -3745 -3746 -3747 -3748 -3749 0
-950 962 -3745 -3746 -3747 -3748 -3749 0
962 -1976 -3745 -3746 -3747 -3748 -3749 0
962 -2217 -3745 -3746 -3747 -3748 -3749 0
-950 -1976 -3745 -3746 -3747 -3748 -3749 0
-962 -1976 -3745 -3746 -3747 -3748 -3749 0
-1976 -3745 -3746 -3747 -3748 -3749 0
-1976 -2217 -3745 -3746 -3747 -3748 -3749 0
-950 -2217 -3745 -3746 -3747 -3748 -3749 0
-962 -2217 -3745 -3746 -3747 -3748 -3749 0
-2217 -3745 -3746 -3747 -3748 -3749 0
-1252 3750 0
-1264 3750 0
-1984 3750 0
-2226 3750 0
1252 1264 1984 2226 -3750 0
3751 -3750 0
-3751 3750 0
-1254 3752 0
-1266 3752 0
-1986 3752 0
-2228 3752 0
-3751 3752 0
1254 1266 1986 2228 3751 -3752 0
3753 -3752 0
3752 -3753 0
-1254 -3751 0
-1266 -3751 0
-1986 -3751 0
-2228 -3751 0
-1253 3754 0
-1265 3754 0
1985 3754 0
2227 3754 0
1253 1265 -1985 -2227 -3754 0
-1253 3755 0
1265 3755 0
-1985 3755 0
2227 3755 0
1253 -1265 1985 -2227 -3755 0
-1253 3756 0
1265 3756 0
1985 3756 0
-2227 3756 0
1253 -1265 -1985 2227 -3756 0
1253 3757 0
-1265 3757 0
-1985 3757 0
2227 3757 0
-1253 1265 1985 -2227 -3757 0
1253 3758 0
-1265 3758 0
1985 3758 0
-2227 3758 0
-1253 1265 -1985 2227 -3758 0
1253 -1265 -3754 -3755 -3756 -3757 -3758 0
1253 -1985 -3754 -3755 -3756 -3757 -3758 0
1253 -2227 -3754 -3755 -3756 -3757 -3758 0
-1253 1265 -3754 -3755 -3756 -3757 -3758 0
1265 -1985 -3754 -3755 -3756 -3757 -3758 0
1265 -2227 -3754 -3755 -3756 -3757 -3758 0
-1253 -1985 -3754 -3755 -3756 -3757 -3758 0
-1265 -1985 -3754 -3755 -3756 -3757 -3758 0
-1985 -3754 -3755 -3756 -3757 -3758 0
-1985 -2227 -3754 -3755 -3756 -3757 -3758 0
-1253 -2227 -3754 -3755 -3756 -3757 -3758 0
-1265 -2227 -3754 -3755 -3756 -3757 -3758 0
-2227 -3754 -3755 -3756 -3757 -3758 0
-1255 3759 0
-1267 3759 0
1987 3759 0
2229 3759 0
1255 1267 -1987 -2229 -3759 0
-1255 3760 0
1267 3760 0
-1987 3760 0
2229 3760 0
1255 -1267 1987 -2229 -3760 0
-1255 3761 0
1267 3761 0
1987 3761 0
-2229 3761 0
1255 -1267 -1987 2229 -3761 0
1255 3762 0
-1267 3762 0
-1987 3762 0
2229 3762 0
-1255 1267 1987 -2229 -3762 0
1255 3763 0
-1267 3763 0
1987 3763 0
-2229 3763 0
-1255 1267 -1987 2229 -3763 0
1255 -1267 -3759 -3760 -3761 -3762 -3763 0
1255 -1987 -3759 -3760 -3761 -3762 -3763 0
1255 -2229 -3759 -3760 -3761 -3762 -3763 0
-1255 1267 -3759 -3760 -3761 -3762 -3763 0
1267 -1987 -3759 -3760 -3761 -3762 -3763 0
1267 -2229 -3759 -3760 -3761 -3762 -3763 0
-1255 -1987 -3759 -3760 -3761 -3762 -3763 0
-1267 -1987 -3759 -3760 -3761 -3762 -3763 0
-1987 -3759 -3760 -3761 -3762 -3763 0
-1987 -2229 -3759 -3760 -3761 -3762 -3763 0
-1255 -2229 -3759 -3760 -3761 -3762 -3763 0
-1267 -2229 -3759 -3760 -3761 -3762 -3763 0
-2229 -3759 -3760 -3761 -3762 -3763 0
-1256 3764 0
-1268 3764 0
1988 3764 0
2230 3764 0
1256 1268 -1988 -2230 -3764 0
-1256 3765 0
1268 3765 0
-1988 3765 0
2230 3765 0
1256 -1268 1988 -2230 -3765 0
-1256 3766 0
1268 3766 0
1988 3766 0
-2230 3766 0
1256 -1268 -1988 2230 -3766 0
1256 3767 0
-1268 3767 0
-1988 3767 0
2230 3767 0
-1256 1268 1988 -2230 -3767 0
1256 3768 0
-1268 3768 0
1988 3768 0
-2230 3768 0
-1256 1268 -1988 2230 -3768 0
1256 -1268 -3764 -3765 -3766 -3767 -3768 0
1256 -1988 -3764 -3765 -3766 -3767 -3768 0
1256 -2230 -3764 -3765 -3766 -3767 -3768 0
-1256 1268 -3764 -3765 -3766 -3767 -3768 0
1268 -1988 -3764 -3765 -3766 -3767 -3768 0
1268 -2230 -3764 -3765 -3766 -3767 -3768 0
-1256 -1988 -3764 -3765 -3766 -3767 -3768 0
-1268 -1988 -3764 -3765 -3766 -3767 -3768 0
-1988 -3764 -3765 -3766 -3767 -3768 0
-1988 -2230 -3764 -3765 -3766 -3767 -3768 0
-1256 -2230 -3764 -3765 -3766 -3767 -3768 0
-1268 -2230 -3764 -3765 -3766 -3767 -3768 0
-2230 -3764 -3765 -3766 -3767 -3768 0
-652 3769 0
-664 3769 0
652 664 -3769 0
3770 -3769 0
-3770 3769 0
-654 3771 0
-666 3771 0
-3770 3771 0
654 666 3770 -3771 0
3772 -3771 0
3771 -3772 0
-654 -3770 0
-666 -3770 0
653 -665 0
-653 665 0
667 -655 0
655 -667 0
668 -656 0
656 -668 0
-958 3773 0
-970 3773 0
958 970 -3773 0
3774 -3773 0
-3774 3773 0
-960 3775 0
-972 3775 0
-3774 3775 0
960 972 3774 -3775 0
3776 -3775 0
3775 -3776 0
-960 -3774 0
-972 -3774 0
971 -959 0
959 -971 0
973 -961 0
961 -973 0
974 -962 0
962 -974 0
-1264 3777 0
-1276 3777 0
1264 1276 -3777 0
3778 -3777 0
-3778 3777 0
-1266 3779 0
-1278 3779 0
-3778 3779 0
1266 1278 3778 -3779 0
3780 -3779 0
3779 -3780 0
-1266 -3778 0
-1278 -3778 0
1277 -1265 0
1265 -1277 0
1279 -1267 0
1267 -1279 0
1280 -1268 0
1268 -1280 0
-664 3781 0
-676 3781 0
664 676 -3781 0
3782 -3781 0
-3782 3781 0
-666 3783 0
-678 3783 0
-3782 3783 0
666 678 3782 -3783 0
3784 -3783 0
3783 -3784 0
-666 -3782 0
-678 -3782 0
677 -665 0
665 -677 0
679 -667 0
667 -679 0
680 -668 0
668 -680 0
-970 3785 0
-982 3785 0
970 982 -3785 0
3786 -3785 0
-3786 3785 0
-972 3787 0
-984 3787 0
-3786 3787 0
972 984 3786 -3787 0
3788 -3787 0
3787 -3788 0
-972 -3786 0
-984 -3786 0
983 -971 0
971 -983 0
985 -973 0
973 -985 0
986 -974 0
974 -986 0
-1276 3789 0
-1288 3789 0
1276 1288 -3789 0
3790 -3789 0
-3790 3789 0
-1278 3791 0
-1290 3791 0
-3790 3791 0
1278 1290 3790 -3791 0
3792 -3791 0
3791 -3792 0
-1278 -3790 0
-1290 -3790 0
1289 -1277 0
1277 -1289 0
1291 -1279 0
1279 -1291 0
1292 -1280 0
1280 -1292 0
-676 3793 0
-688 3793 0
676 688 -3793 0
3794 -3793 0
-3794 3793 0
-678 3795 0
-690 3795 0
-3794 3795 0
678 690 3794 -3795 0
3796 -3795 0
3795 -3796 0
-678 -3794 0
-690 -3794 0
689 -677 0
677 -689 0
691 -679 0
679 -691 0
692 -680 0
680 -692 0
-982 3797 0
-994 3797 0
982 994 -3797 0
3798 -3797 0
-3798 3797 0
-984 3799 0
-996 3799 0
-3798 3799 0
984 996 3798 -3799 0
3800 -3799 0
3799 -3800 0
-984 -3798 0
-996 -3798 0
995 -983 0
983 -995 0
997 -985 0
985 -997 0
998 -986 0
986 -998 0
-1288 3801 0
-1300 3801 0
1288 1300 -3801 0
3802 -3801 0
-3802 3801 0
-1290 3803 0
-1302 3803 0
-3802 3803 0
1290 1302 3802 -3803 0
3804 -3803 0
3803 -3804 0
-1290 -3802 0
-1302 -3802 0
1301 -1289 0
1289 -1301 0
1303 -1291 0
1291 -1303 0
1304 -1292 0
1292 -1304 0
-688 3805 0
-700 3805 0
-1996 3805 0
-2238 3805 0
688 700 1996 2238 -3805 0
3806 -3805 0
-3806 3805 0
-690 3807 0
-702 3807 0
-1998 3807 0
-2240 3807 0
-3806 3807 0
690 702 1998 2240 3806 -3807 0
3808 -3807 0
3807 -3808 0
-690 -3806 0
-702 -3806 0
-1998 -3806 0
-2240 -3806 0
-689 3809 0
-701 3809 0
1997 3809 0
2239 3809 0
689 701 -1997 -2239 -3809 0
-689 3810 0
701 3810 0
-1997 3810 0
2239 3810 0
689 -701 1997 -2239 -3810 0
-689 3811 0
701 3811 0
1997 3811 0
-2239 3811 0
689 -701 -1997 2239 -3811 0
689 3812 0
-701 3812 0
-1997 3812 0
2239 3812 0
-689 701 1997 -2239 -3812 0
689 3813 0
-701 3813 0
1997 3813 0
-2239 3813 0
-689 701 -1997 2239 -3813 0
689 -701 -3809 -3810 -3811 -3812 -3813 0
689 -1997 -3809 -3810 -3811 -3812 -3813 0
689 -2239 -3809 -3810 -3811 -3812 -3813 0
-689 701 -3809 -3810 -3811 -3812 -3813 0
701 -1997 -3809 -3810 -3811 -3812 -3813 0
701 -2239 -3809 -3810 -3811 -3812 -3813 0
-689 -1997 -3809 -3810 -3811 -3812 -3813 0
-701 -1997 -3809 -3810 -3811 -3812 -3813 0
-1997 -3809 -3810 -3811 -3812 -3813 0
-1997 -2239 -3809 -3810 -3811 -3812 -3813 0
-689 -2239 -3809 -3810 -3811 -3812 -3813 0
-701 -2239 -3809 -3810 -3811 -3812 -3813 0
-2239 -3809 -3810 -3811 -3812 -3813 0
-691 3814 0
-703 3814 0
1999 3814 0
2241 3814 0
691 703 -1999 -2241 -3814 0
-691 3815 0
703 3815 0
-1999 3815 0
2241 3815 0
691 -703 1999 -2241 -3815 0
-691 3816 0
703 3816 0
1999 3816 0
-2241 3816 0
691 -703 -1999 2241 -3816 0
691 3817 0
-703 3817 0
-1999 3817 0
2241 3817 0
-691 703 1999 -2241 -3817 0
691 3818 0
-703 3818 0
1999 3818 0
-2241 3818 0
-691 703 -1999 2241 -3818 0
691 -703 -3814 -3815 -3816 -3817 -3818 0
691 -1999 -3814 -3815 -3816 -3817 -3818 0
691 -2241 -3814 -3815 -3816 -3817 -3818 0
-691 703 -3814 -3815 -3816 -3817 -3818 0
703 -1999 -3814 -3815 -3816 -3817 -3818 0
703 -2241 -3814 -3815 -3816 -3817 -3818 0
-691 -1999 -3814 -3815 -3816 -3817 -3818 0
-703 -1999 -3814 -3815 -3816 -3817 -3818 0
-1999 -3814 -3815 -3816 -3817 -3818 0
-1999 -2241 -3814 -3815 -3816 -3817 -3818 0
-691 -2241 -3814 -3815 -3816 -3817 -3818 0
-703 -2241 -3814 -3815 -3816 -3817 -3818 0
-2241 -3814 -3815 -3816 -3817 -3818 0
-692 3819 0
-704 3819 0
2000 3819 0
2242 3819 0
692 704 -2000 -2242 -3819 0
-692 3820 0
704 3820 0
-2000 3820 0
2242 3820 0
692 -704 2000 -2242 -3820 0
-692 3821 0
704 3821 0
2000 3821 0
-2242 3821 0
692 -704 -2000 2242 -3821 0
692 3822 0
-704 3822 0
-2000 3822 0
2242 3822 0
-692 704 2000 -2242 -3822 0
692 3823 0
-704 3823 0
2000 3823 0
-2242 3823 0
-692 704 -2000 2242 -3823 0
692 -704 -3819 -3820 -3821 -3822 -3823 0
692 -2000 -3819 -3820 -3821 -3822 -3823 0
692 -2242 -3819 -3820 -3821 -3822 -3823 0
-692 704 -3819 -3820 -3821 -3822 -3823 0
704 -2000 -3819 -3820 -3821 -3822 -3823 0
704 -2242 -3819 -3820 -3821 -3822 -3823 0
-692 -2000 -3819 -3820 -3821 -3822 -3823 0
-704 -2000 -3819 -3820 -3821 -3822 -3823 0
-2000 -3819 -3820 -3821 -3822 -3823 0
-2000 -2242 -3819 -3820 -3821 -3822 -3823 0
-692 -2242 -3819 -3820 -3821 -3822 -3823 0
-704 -2242 -3819 -3820 -3821 -3822 -3823 0
-2242 -3819 -3820 -3821 -3822 -3823 0
-994 3824 0
-1006 3824 0
-2008 3824 0
994 1006 2008 -3824 0
3825 -3824 0
-3825 3824 0
-996 3826 0
-1008 3826 0
-2010 3826 0
-3825 3826 0
996 1008 2010 3825 -3826 0
3827 -3826 0
3826 -3827 0
-996 -3825 0
-1008 -3825 0
-2010 -3825 0
-995 3828 0
-1007 3828 0
2009 3828 0
2250 3828 0
995 1007 -2009 -2250 -3828 0
-995 3829 0
1007 3829 0
-2009 3829 0
2250 3829 0
995 -1007 2009 -2250 -3829 0
-995 3830 0
1007 3830 0
2009 3830 0
-2250 3830 0
995 -1007 -2009 2250 -3830 0
995 3831 0
-1007 3831 0
-2009 3831 0
2250 3831 0
-995 1007 2009 -2250 -3831 0
995 3832 0
-1007 3832 0
2009 3832 0
-2250 3832 0
-995 1007 -2009 2250 -3832 0
995 -1007 -3828 -3829 -3830 -3831 -3832 0
995 -2009 -3828 -3829 -3830 -3831 -3832 0
995 -2250 -3828 -3829 -3830 -3831 -3832 0
-995 1007 -3828 -3829 -3830 -3831 -3832 0
1007 -2009 -3828 -3829 -3830 -3831 -3832 0
1007 -2250 -3828 -3829 -3830 -3831 -3832 0
-995 -2009 -3828 -3829 -3830 -3831 -3832 0
-1007 -2009 -3828 -3829 -3830 -3831 -3832 0
-2009 -3828 -3829 -3830 -3831 -3832 0
-2009 -2250 -3828 -3829 -3830 -3831 -3832 0
-995 -2250 -3828 -3829 -3830 -3831 -3832 0
-1007 -2250 -3828 -3829 -3830 -3831 -3832 0
-2250 -3828 -3829 -3830 -3831 -3832 0
-997 3833 0
-1009 3833 0
2011 3833 0
2251 3833 0
997 1009 -2011 -2251 -3833 0
-997 3834 0
1009 3834 0
-2011 3834 0
2251 3834 0
997 -1009 2011 -2251 -3834 0
-997 3835 0
1009 3835 0
2011 3835 0
-2251 3835 0
997 -1009 -2011 2251 -3835 0
997 3836 0
-1009 3836 0
-2011 3836 0
2251 3836 0
-997 1009 2011 -2251 -3836 0
997 3837 0
-1009 3837 0
2011 3837 0
-2251 3837 0
-997 1009 -2011 2251 -3837 0
997 -1009 -3833 -3834 -3835 -3836 -3837 0
997 -2011 -3833 -3834 -3835 -3836 -3837 0
997 -2251 -3833 -3834 -3835 -3836 -3837 0
-997 1009 -3833 -3834 -3835 -3836 -3837 0
1009 -2011 -3833 -3834 -3835 -3836 -3837 0
1009 -2251 -3833 -3834 -3835 -3836 -3837 0
-997 -2011 -3833 -3834 -3835 -3836 -3837 0
-1009 -2011 -3833 -3834 -3835 -3836 -3837 0
-2011 -3833 -3834 -3835 -3836 -3837 0
-2011 -2251 -3833 -3834 -3835 -3836 -3837 0
-997 -2251 -3833 -3834 -3835 -3836 -3837 0
-1009 -2251 -3833 -3834 -3835 -3836 -3837 0
-2251 -3833 -3834 -3835 -3836 -3837 0
-998 3838 0
-1010 3838 0
2012 3838 0
2252 3838 0
998 1010 -2012 -2252 -3838 0
-998 3839 0
1010 3839 0
-2012 3839 0
2252 3839 0
998 -1010 2012 -2252 -3839 0
-998 3840 0
1010 3840 0
2012 3840 0
-2252 3840 0
998 -1010 -2012 2252 -3840 0
998 3841 0
-1010 3841 0
-2012 3841 0
2252 3841 0
-998 1010 2012 -2252 -3841 0
998 3842 0
-1010 3842 0
2012 3842 0
-2252 3842 0
-998 1010 -2012 2252 -3842 0
998 -1010 -3838 -3839 -3840 -3841 -3842 0
998 -2012 -3838 -3839 -3840 -3841 -3842 0
998 -2252 -3838 -3839 -3840 -3841 -3842 0
-998 1010 -3838 -3839 -3840 -3841 -3842 0
1010 -2012 -3838 -3839 -3840 -3841 -3842 0
1010 -2252 -3838 -3839 -3840 -3841 -3842 0
-998 -2012 -3838 -3839 -3840 -3841 -3842 0
-1010 -2012 -3838 -3839 -3840 -3841 -3842 0
-2012 -3838 -3839 -3840 -3841 -3842 0
-2012 -2252 -3838 -3839 -3840 -3841 -3842 0
-998 -2252 -3838 -3839 -3840 -3841 -3842 0
-1010 -2252 -3838 -3839 -3840 -3841 -3842 0
-2252 -3838 -3839 -3840 -3841 -3842 0
-1300 3843 0
-1312 3843 0
-2020 3843 0
-2261 3843 0
1300 1312 2020 2261 -3843 0
3844 -3843 0
-3844 3843 0
-1302 3845 0
-1314 3845 0
-2022 3845 0
-2263 3845 0
-3844 3845 0
1302 1314 2022 2263 3844 -3845 0
3846 -3845 0
3845 -3846 0
-1302 -3844 0
-1314 -3844 0
-2022 -3844 0
-2263 -3844 0
-1301 3847 0
-1313 3847 0
2021 3847 0
2262 3847 0
1301 1313 -2021 -2262 -3847 0
-1301 3848 0
1313 3848 0
-2021 3848 0
2262 3848 0
1301 -1313 2021 -2262 -3848 0
-1301 3849 0
1313 3849 0
2021 3849 0
-2262 3849 0
1301 -1313 -2021 2262 -3849 0
1301 3850 0
-1313 3850 0
-2021 3850 0
2262 3850 0
-1301 1313 2021 -2262 -3850 0
1301 3851 0
-1313 3851 0
2021 3851 0
-2262 3851 0
-1301 1313 -2021 2262 -3851 0
1301 -1313 -3847 -3848 -3849 -3850 -3851 0
1301 -2021 -3847 -3848 -3849 -3850 -3851 0
1301 -2262 -3847 -3848 -3849 -3850 -3851 0
-1301 1313 -3847 -3848 -3849 -3850 -3851 0
1313 -2021 -3847 -3848 -3849 -3850 -3851 0
1313 -2262 -3847 -3848 -3849 -3850 -3851 0
-1301 -2021 -3847 -3848 -3849 -3850 -3851 0
-1313 -2021 -3847 -3848 -3849 -3850 -3851 0
-2021 -3847 -3848 -3849 -3850 -3851 0
-2021 -2262 -3847 -3848 -3849 -3850 -3851 0
-1301 -2262 -3847 -3848 -3849 -3850 -3851 0
-1313 -2262 -3847 -3848 -3849 -3850 -3851 0
-2262 -3847 -3848 -3849 -3850 -3851 0
-1303 3852 0
-1315 3852 0
2023 3852 0
2264 3852 0
1303 1315 -2023 -2264 -3852 0
-1303 3853 0
1315 3853 0
-2023 3853 0
2264 3853 0
1303 -1315 2023 -2264 -3853 0
-1303 3854 0
1315 3854 0
2023 3854 0
-2264 3854 0
1303 -1315 -2023 2264 -3854 0
1303 3855 0
-1315 3855 0
-2023 3855 0
2264 3855 0
-1303 1315 2023 -2264 -3855 0
1303 3856 0
-1315 3856 0
2023 3856 0
-2264 3856 0
-1303 1315 -2023 2264 -3856 0
1303 -1315 -3852 -3853 -3854 -3855 -3856 0
1303 -2023 -3852 -3853 -3854 -3855 -3856 0
1303 -2264 -3852 -3853 -3854 -3855 -3856 0
-1303 1315 -3852 -3853 -3854 -3855 -3856 0
1315 -2023 -3852 -3853 -3854 -3855 -3856 0
1315 -2264 -3852 -3853 -3854 -3855 -3856 0
-1303 -2023 -3852 -3853 -3854 -3855 -3856 0
-1315 -2023 -3852 -3853 -3854 -3855 -3856 0
-2023 -3852 -3853 -3854 -3855 -3856 0
-2023 -2264 -3852 -3853 -3854 -3855 -3856 0
-1303 -2264 -3852 -3853 -3854 -3855 -3856 0
-1315 -2264 -3852 -3853 -3854 -3855 -3856 0
-2264 -3852 -3853 -3854 -3855 -3856 0
-1304 3857 0
-1316 3857 0
2024 3857 0
2265 3857 0
1304 1316 -2024 -2265 -3857 0
-1304 3858 0
1316 3858 0
-2024 3858 0
2265 3858 0
1304 -1316 2024 -2265 -3858 0
-1304 3859 0
1316 3859 0
2024 3859 0
-2265 3859 0
1304 -1316 -2024 2265 -3859 0
1304 3860 0
-1316 3860 0
-2024 3860 0
2265 3860 0
-1304 1316 2024 -2265 -3860 0
1304 3861 0
-1316 3861 0
2024 3861 0
-2265 3861 0
-1304 1316 -2024 2265 -3861 0
1304 -1316 -3857 -3858 -3859 -3860 -3861 0
1304 -2024 -3857 -3858 -3859 -3860 -3861 0
1304 -2265 -3857 -3858 -3859 -3860 -3861 0
-1304 1316 -3857 -3858 -3859 -3860 -3861 0
1316 -2024 -3857 -3858 -3859 -3860 -3861 0
1316 -2265 -3857 -3858 -3859 -3860 -3861 0
-1304 -2024 -3857 -3858 -3859 -3860 -3861 0
-1316 -2024 -3857 -3858 -3859 -3860 -3861 0
-2024 -3857 -3858 -3859 -3860 -3861 0
-2024 -2265 -3857 -3858 -3859 -3860 -3861 0
-1304 -2265 -3857 -3858 -3859 -3860 -3861 0
-1316 -2265 -3857 -3858 -3859 -3860 -3861 0
-2265 -3857 -3858 -3859 -3860 -3861 0
-700 3862 0
-712 3862 0
700 712 -3862 0
3863 -3862 0
-3863 3862 0
-702 3864 0
-714 3864 0
-3863 3864 0
702 714 3863 -3864 0
3865 -3864 0
3864 -3865 0
-702 -3863 0
-714 -3863 0
701 -713 0
-701 713 0
715 -703 0
703 -715 0
716 -704 0
704 -716 0
-1006 3866 0
-1018 3866 0
1006 1018 -3866 0
3867 -3866 0
-3867 3866 0
-1008 3868 0
-1020 3868 0
-3867 3868 0
1008 1020 3867 -3868 0
3869 -3868 0
3868 -3869 0
-1008 -3867 0
-1020 -3867 0
1019 -1007 0
1007 -1019 0
1021 -1009 0
1009 -1021 0
1022 -1010 0
1010 -1022 0
-1312 3870 0
-1324 3870 0
1312 1324 -3870 0
3871 -3870 0
-3871 3870 0
-1314 3872 0
-1326 3872 0
-3871 3872 0
1314 1326 3871 -3872 0
3873 -3872 0
3872 -3873 0
-1314 -3871 0
-1326 -3871 0
1325 -1313 0
1313 -1325 0
1327 -1315 0
1315 -1327 0
1328 -1316 0
1316 -1328 0
-712 3874 0
-724 3874 0
712 724 -3874 0
3875 -3874 0
-3875 3874 0
-714 3876 0
-726 3876 0
-3875 3876 0
714 726 3875 -3876 0
3877 -3876 0
3876 -3877 0
-714 -3875 0
-726 -3875 0
725 -713 0
713 -725 0
727 -715 0
715 -727 0
728 -716 0
716 -728 0
-1018 3878 0
-1030 3878 0
1018 1030 -3878 0
3879 -3878 0
-3879 3878 0
-1020 3880 0
-1032 3880 0
-3879 3880 0
1020 1032 3879 -3880 0
3881 -3880 0
3880 -3881 0
-1020 -3879 0
-1032 -3879 0
1031 -1019 0
1019 -1031 0
1033 -1021 0
1021 -1033 0
1034 -1022 0
1022 -1034 0
-1324 3882 0
-1336 3882 0
1324 1336 -3882 0
3883 -3882 0
-3883 3882 0
-1326 3884 0
-1338 3884 0
-3883 3884 0
1326 1338 3883 -3884 0
3885 -3884 0
3884 -3885 0
-1326 -3883 0
-1338 -3883 0
1337 -1325 0
1325 -1337 0
1339 -1327 0
1327 -1339 0
1340 -1328 0
1328 -1340 0
-724 3886 0
-736 3886 0
724 736 -3886 0
3887 -3886 0
-3887 3886 0
-726 3888 0
-738 3888 0
-3887 3888 0
726 738 3887 -3888 0
3889 -3888 0
3888 -3889 0
-726 -3887 0
-738 -3887 0
737 -725 0
725 -737 0
739 -727 0
727 -739 0
740 -728 0
728 -740 0
-1030 3890 0
-1042 3890 0
1030 1042 -3890 0
3891 -3890 0
-3891 3890 0
-1032 3892 0
-1044 3892 0
-3891 3892 0
1032 1044 3891 -3892 0
3893 -3892 0
3892 -3893 0
-1032 -3891 0
-1044 -3891 0
1043 -1031 0
1031 -1043 0
1045 -1033 0
1033 -1045 0
1046 -1034 0
1034 -1046 0
-1336 3894 0
-1348 3894 0
1336 1348 -3894 0
3895 -3894 0
-3895 3894 0
-1338 3896 0
-1350 3896 0
-3895 3896 0
1338 1350 3895 -3896 0
3897 -3896 0
3896 -3897 0
-1338 -3895 0
-1350 -3895 0
1349 -1337 0
1337 -1349 0
1351 -1339 0
1339 -1351 0
1352 -1340 0
1340 -1352 0
-736 3898 0
-748 3898 0
736 748 -3898 0
3899 -3898 0
-3899 3898 0
-738 3900 0
-749 3900 0
-3899 3900 0
738 749 3899 -3900 0
3901 -3900 0
3900 -3901 0
-738 -3899 0
-749 -3899 0
-737 3902 0
2032 3902 0
2273 3902 0
737 -2032 -2273 -3902 0
3903 0
3904 0
737 3905 0
-2032 3905 0
2273 3905 0
-737 2032 -2273 -3905 0
737 3906 0
2032 3906 0
-2273 3906 0
-737 -2032 2273 -3906 0
737 -2032 -3902 -3905 -3906 0
737 -2273 -3902 -3905 -3906 0
-737 -3902 -3905 -3906 0
-737 -2032 -3902 -3905 -3906 0
-2032 -3902 -3905 -3906 0
-2032 -2273 -3902 -3905 -3906 0
-737 -2273 -3902 -3905 -3906 0
-2273 -3902 -3905 -3906 0
-739 3907 0
2033 3907 0
2274 3907 0
739 -2033 -2274 -3907 0
3908 0
3909 0
739 3910 0
-2033 3910 0
2274 3910 0
-739 2033 -2274 -3910 0
739 3911 0
2033 3911 0
-2274 3911 0
-739 -2033 2274 -3911 0
739 -2033 -3907 -3910 -3911 0
739 -2274 -3907 -3910 -3911 0
-739 -3907 -3910 -3911 0
-739 -2033 -3907 -3910 -3911 0
-2033 -3907 -3910 -3911 0
-2033 -2274 -3907 -3910 -3911 0
-739 -2274 -3907 -3910 -3911 0
-2274 -3907 -3910 -3911 0
-740 3912 0
2034 3912 0
2275 3912 0
740 -2034 -2275 -3912 0
3913 0
3914 0
740 3915 0
-2034 3915 0
2275 3915 0
-740 2034 -2275 -3915 0
740 3916 0
2034 3916 0
-2275 3916 0
-740 -2034 2275 -3916 0
740 -2034 -3912 -3915 -3916 0
740 -2275 -3912 -3915 -3916 0
-740 -3912 -3915 -3916 0
-740 -2034 -3912 -3915 -3916 0
-2034 -3912 -3915 -3916 0
-2034 -2275 -3912 -3915 -3916 0
-740 -2275 -3912 -3915 -3916 0
-2275 -3912 -3915 -3916 0
-1042 3917 0
-1054 3917 0
1042 1054 -3917 0
3918 -3917 0
-3918 3917 0
-1044 3919 0
-1055 3919 0
-3918 3919 0
1044 1055 3918 -3919 0
3920 -3919 0
3919 -3920 0
-1044 -3918 0
-1055 -3918 0
-1043 3921 0
2043 3921 0
2284 3921 0
1043 -2043 -2284 -3921 0
3922 0
3923 0
1043 3924 0
-2043 3924 0
2284 3924 0
-1043 2043 -2284 -3924 0
1043 3925 0
2043 3925 0
-2284 3925 0
-1043 -2043 2284 -3925 0
1043 -2043 -3921 -3924 -3925 0
1043 -2284 -3921 -3924 -3925 0
-1043 -3921 -3924 -3925 0
-1043 -2043 -3921 -3924 -3925 0
-2043 -3921 -3924 -3925 0
-2043 -2284 -3921 -3924 -3925 0
-1043 -2284 -3921 -3924 -3925 0
-2284 -3921 -3924 -3925 0
-1045 3926 0
2044 3926 0
2285 3926 0
1045 -2044 -2285 -3926 0
3927 0
3928 0
1045 3929 0
-2044 3929 0
2285 3929 0
-1045 2044 -2285 -3929 0
1045 3930 0
2044 3930 0
-2285 3930 0
-1045 -2044 2285 -3930 0
1045 -2044 -3926 -3929 -3930 0
1045 -2285 -3926 -3929 -3930 0
-1045 -3926 -3929 -3930 0
-1045 -2044 -3926 -3929 -3930 0
-2044 -3926 -3929 -3930 0
-2044 -2285 -3926 -3929 -3930 0
-1045 -2285 -3926 -3929 -3930 0
-2285 -3926 -3929 -3930 0
-1046 3931 0
2045 3931 0
2286 3931 0
1046 -2045 -2286 -3931 0
3932 0
3933 0
1046 3934 0
-2045 3934 0
2286 3934 0
-1046 2045 -2286 -3934 0
1046 3935 0
2045 3935 0
-2286 3935 0
-1046 -2045 2286 -3935 0
1046 -2045 -3931 -3934 -3935 0
1046 -2286 -3931 -3934 -3935 0
-1046 -3931 -3934 -3935 0
-1046 -2045 -3931 -3934 -3935 0
-2045 -3931 -3934 -3935 0
-2045 -2286 -3931 -3934 -3935 0
-1046 -2286 -3931 -3934 -3935 0
-2286 -3931 -3934 -3935 0
-1348 3936 0
-1360 3936 0
1348 1360 -3936 0
3937 -3936 0
-3937 3936 0
-1350 3938 0
-1361 3938 0
-3937 3938 0
1350 1361 3937 -3938 0
3939 -3938 0
3938 -3939 0
-1350 -3937 0
-1361 -3937 0
-1349 3940 0
2054 3940 0
2295 3940 0
1349 -2054 -2295 -3940 0
3941 0
3942 0
1349 3943 0
-2054 3943 0
2295 3943 0
-1349 2054 -2295 -3943 0
1349 3944 0
2054 3944 0
-2295 3944 0
-1349 -2054 2295 -3944 0
1349 -2054 -3940 -3943 -3944 0
1349 -2295 -3940 -3943 -3944 0
-1349 -3940 -3943 -3944 0
-1349 -2054 -3940 -3943 -3944 0
-2054 -3940 -3943 -3944 0
-2054 -2295 -3940 -3943 -3944 0
-1349 -2295 -3940 -3943 -3944 0
-2295 -3940 -3943 -3944 0
-1351 3945 0
2055 3945 0
2296 3945 0
1351 -2055 -2296 -3945 0
3946 0
3947 0
1351 3948 0
-2055 3948 0
2296 3948 0
-1351 2055 -2296 -3948 0
1351 3949 0
2055 3949 0
-2296 3949 0
-1351 -2055 2296 -3949 0
1351 -2055 -3945 -3948 -3949 0
1351 -2296 -3945 -3948 -3949 0
-1351 -3945 -3948 -3949 0
-1351 -2055 -3945 -3948 -3949 0
-2055 -3945 -3948 -3949 0
-2055 -2296 -3945 -3948 -3949 0
-1351 -2296 -3945 -3948 -3949 0
-2296 -3945 -3948 -3949 0
-1352 3950 0
2056 3950 0
2297 3950 0
1352 -2056 -2297 -3950 0
3951 0
3952 0
1352 3953 0
-2056 3953 0
2297 3953 0
-1352 2056 -2297 -3953 0
1352 3954 0
2056 3954 0
-2297 3954 0
-1352 -2056 2297 -3954 0
1352 -2056 -3950 -3953 -3954 0
1352 -2297 -3950 -3953 -3954 0
-1352 -3950 -3953 -3954 0
-1352 -2056 -3950 -3953 -3954 0
-2056 -3950 -3953 -3954 0
-2056 -2297 -3950 -3953 -3954 0
-1352 -2297 -3950 -3953 -3954 0
-2297 -3950 -3953 -3954 0
3955 -748 0
748 -3955 0
-749 3956 0
-3955 3956 0
749 3955 -3956 0
3957 -3956 0
3956 -3957 0
-749 -3955 0
-3958 0
-3959 0
-3960 0
3961 -1054 0
1054 -3961 0
-1055 3962 0
-3961 3962 0
1055 3961 -3962 0
3963 -3962 0
3962 -3963 0
-1055 -3961 0
-3964 0
-3965 0
-3966 0
3967 -1360 0
1360 -3967 0
-1361 3968 0
-3967 3968 0
1361 3967 -3968 0
3969 -3968 0
3968 -3969 0
-1361 -3967 0
-3970 0
-3971 0
-3972 0
-3973 0
-3974 0
-3975 0
-3976 0
-3977 0
-3978 0
-3979 0
-3980 0
-3981 0
-3982 0
-1377 3983 0
1819 3983 0
2558 3983 0
1377 -1819 -2558 -3983 0
1377 3984 0
-1819 3984 0
2558 3984 0
-1377 1819 -2558 -3984 0
1377 3985 0
1819 3985 0
-2558 3985 0
-1377 -1819 2558 -3985 0
3986 0
3987 0
-1377 -3983 -3984 -3985 0
1377 -1819 -3983 -3984 -3985 0
1377 -2558 -3983 -3984 -3985 0
-1377 -1819 -3983 -3984 -3985 0
-1819 -3983 -3984 -3985 0
-1819 -2558 -3983 -3984 -3985 0
-1377 -2558 -3983 -3984 -3985 0
-2558 -3983 -3984 -3985 0
3988 0
3989 0
1378 3990 0
1820 3990 0
3991 0
3992 0
-1378 -3990 0
1378 -1820 -3990 0
-1378 -1820 -3990 0
-1820 -3990 0
-1379 3993 0
1821 3993 0
2559 3993 0
1379 -1821 -2559 -3993 0
1379 3994 0
-1821 3994 0
2559 3994 0
-1379 1821 -2559 -3994 0
1379 3995 0
1821 3995 0
-2559 3995 0
-1379 -1821 2559 -3995 0
3996 0
3997 0
-1379 -3993 -3994 -3995 0
1379 -1821 -3993 -3994 -3995 0
1379 -2559 -3993 -3994 -3995 0
-1379 -1821 -3993 -3994 -3995 0
-1821 -3993 -3994 -3995 0
-1821 -2559 -3993 -3994 -3995 0
-1379 -2559 -3993 -3994 -3995 0
-2559 -3993 -3994 -3995 0
-3998 0
-3999 0
-4000 0
-4001 0
1377 -1388 0
-1377 1388 0
1389 -1378 0
1378 -1389 0
1390 -1379 0
1379 -1390 0
-4002 0
-4003 0
-4004 0
-4005 0
-1388 4006 0
-1399 4006 0
1830 4006 0
2633 4006 0
1388 1399 -1830 -2633 -4006 0
-1388 4007 0
1399 4007 0
-1830 4007 0
2633 4007 0
1388 -1399 1830 -2633 -4007 0
-1388 4008 0
1399 4008 0
1830 4008 0
-2633 4008 0
1388 -1399 -1830 2633 -4008 0
1388 4009 0
-1399 4009 0
-1830 4009 0
2633 4009 0
-1388 1399 1830 -2633 -4009 0
1388 4010 0
-1399 4010 0
1830 4010 0
-2633 4010 0
-1388 1399 -1830 2633 -4010 0
1388 -1399 -4006 -4007 -4008 -4009 -4010 0
1388 -1830 -4006 -4007 -4008 -4009 -4010 0
1388 -2633 -4006 -4007 -4008 -4009 -4010 0
-1388 1399 -4006 -4007 -4008 -4009 -4010 0
1399 -1830 -4006 -4007 -4008 -4009 -4010 0
1399 -2633 -4006 -4007 -4008 -4009 -4010 0
-1388 -1830 -4006 -4007 -4008 -4009 -4010 0
-1399 -1830 -4006 -4007 -4008 -4009 -4010 0
-1830 -4006 -4007 -4008 -4009 -4010 0
-1830 -2633 -4006 -4007 -4008 -4009 -4010 0
-1388 -2633 -4006 -4007 -4008 -4009 -4010 0
-1399 -2633 -4006 -4007 -4008 -4009 -4010 0
-2633 -4006 -4007 -4008 -4009 -4010 0
4011 0
4012 0
-1389 4013 0
1400 4013 0
1831 4013 0
1389 -1400 -1831 -4013 0
4014 0
1389 4015 0
-1400 4015 0
1831 4015 0
-1389 1400 -1831 -4015 0
1389 -1400 -4013 -4015 0
1389 -1831 -4013 -4015 0
-1389 1400 -4013 -4015 0
1400 -1831 -4013 -4015 0
-1389 -1831 -4013 -4015 0
-1400 -1831 -4013 -4015 0
-1831 -4013 -4015 0
-1390 4016 0
-1401 4016 0
1832 4016 0
2634 4016 0
1390 1401 -1832 -2634 -4016 0
-1390 4017 0
1401 4017 0
-1832 4017 0
2634 4017 0
1390 -1401 1832 -2634 -4017 0
-1390 4018 0
1401 4018 0
1832 4018 0
-2634 4018 0
1390 -1401 -1832 2634 -4018 0
1390 4019 0
-1401 4019 0
-1832 4019 0
2634 4019 0
-1390 1401 1832 -2634 -4019 0
1390 4020 0
-1401 4020 0
1832 4020 0
-2634 4020 0
-1390 1401 -1832 2634 -4020 0
1390 -1401 -4016 -4017 -4018 -4019 -4020 0
1390 -1832 -4016 -4017 -4018 -4019 -4020 0
1390 -2634 -4016 -4017 -4018 -4019 -4020 0
-1390 1401 -4016 -4017 -4018 -4019 -4020 0
1401 -1832 -4016 -4017 -4018 -4019 -4020 0
1401 -2634 -4016 -4017 -4018 -4019 -4020 0
-1390 -1832 -4016 -4017 -4018 -4019 -4020 0
-1401 -1832 -4016 -4017 -4018 -4019 -4020 0
-1832 -4016 -4017 -4018 -4019 -4020 0
-1832 -2634 -4016 -4017 -4018 -4019 -4020 0
-1390 -2634 -4016 -4017 -4018 -4019 -4020 0
-1401 -2634 -4016 -4017 -4018 -4019 -4020 0
-2634 -4016 -4017 -4018 -4019 -4020 0
-4021 0
-4022 0
-4023 0
-4024 0
1399 -1410 0
-1399 1410 0
1411 -1400 0
1400 -1411 0
1412 -1401 0
1401 -1412 0
-4025 0
-4026 0
-4027 0
-4028 0
-1410 4029 0
1841 4029 0
2708 4029 0
1410 -1841 -2708 -4029 0
4030 0
4031 0
1410 4032 0
-1841 4032 0
2708 4032 0
-1410 1841 -2708 -4032 0
1410 4033 0
1841 4033 0
-2708 4033 0
-1410 -1841 2708 -4033 0
1410 -1841 -4029 -4032 -4033 0
1410 -2708 -4029 -4032 -4033 0
-1410 -4029 -4032 -4033 0
-1410 -1841 -4029 -4032 -4033 0
-1841 -4029 -4032 -4033 0
-1841 -2708 -4029 -4032 -4033 0
-1410 -2708 -4029 -4032 -4033 0
-2708 -4029 -4032 -4033 0
4034 0
4035 0
4036 0
4037 0
1411 4038 0
1842 4038 0
1411 -1842 -4038 0
-1411 -4038 0
-1411 -1842 -4038 0
-1842 -4038 0
-1412 4039 0
1843 4039 0
2709 4039 0
1412 -1843 -2709 -4039 0
4040 0
4041 0
1412 4042 0
-1843 4042 0
2709 4042 0
-1412 1843 -2709 -4042 0
1412 4043 0
1843 4043 0
-2709 4043 0
-1412 -1843 2709 -4043 0
1412 -1843 -4039 -4042 -4043 0
1412 -2709 -4039 -4042 -4043 0
-1412 -4039 -4042 -4043 0
-1412 -1843 -4039 -4042 -4043 0
-1843 -4039 -4042 -4043 0
-1843 -2709 -4039 -4042 -4043 0
-1412 -2709 -4039 -4042 -4043 0
-2709 -4039 -4042 -4043 0
-4044 0
-4045 0
-4046 0
-4047 0
-4048 0
-4049 0
4050 -1429 0
1429 -4050 0
-1430 4051 0
-4050 4051 0
1430 4050 -4051 0
4052 -4051 0
4051 -4052 0
-1430 -4050 0
-4053 0
-4054 0
-4055 0
-1429 4056 0
-1438 4056 0
-1852 4056 0
-2568 4056 0
1429 1438 1852 2568 -4056 0
4057 -4056 0
-4057 4056 0
-1430 4058 0
-1440 4058 0
-1854 4058 0
-2570 4058 0
-4057 4058 0
1430 1440 1854 2570 4057 -4058 0
4059 -4058 0
4058 -4059 0
-1430 -4057 0
-1440 -4057 0
-1854 -4057 0
-2570 -4057 0
-1439 4060 0
1853 4060 0
2569 4060 0
1439 -1853 -2569 -4060 0
1439 4061 0
-1853 4061 0
2569 4061 0
-1439 1853 -2569 -4061 0
1439 4062 0
1853 4062 0
-2569 4062 0
-1439 -1853 2569 -4062 0
4063 0
4064 0
-1439 -4060 -4061 -4062 0
1439 -1853 -4060 -4061 -4062 0
1439 -2569 -4060 -4061 -4062 0
-1439 -1853 -4060 -4061 -4062 0
-1853 -4060 -4061 -4062 0
-1853 -2569 -4060 -4061 -4062 0
-1439 -2569 -4060 -4061 -4062 0
-2569 -4060 -4061 -4062 0
4065 0
4066 0
1441 4067 0
1855 4067 0
4068 0
4069 0
-1441 -4067 0
1441 -1855 -4067 0
-1441 -1855 -4067 0
-1855 -4067 0
-1442 4070 0
1856 4070 0
2571 4070 0
1442 -1856 -2571 -4070 0
1442 4071 0
-1856 4071 0
2571 4071 0
-1442 1856 -2571 -4071 0
1442 4072 0
1856 4072 0
-2571 4072 0
-1442 -1856 2571 -4072 0
4073 0
4074 0
-1442 -4070 -4071 -4072 0
1442 -1856 -4070 -4071 -4072 0
1442 -2571 -4070 -4071 -4072 0
-1442 -1856 -4070 -4071 -4072 0
-1856 -4070 -4071 -4072 0
-1856 -2571 -4070 -4071 -4072 0
-1442 -2571 -4070 -4071 -4072 0
-2571 -4070 -4071 -4072 0
-1438 4075 0
-1450 4075 0
1438 1450 -4075 0
4076 -4075 0
-4076 4075 0
-1440 4077 0
-1452 4077 0
-4076 4077 0
1440 1452 4076 -4077 0
4078 -4077 0
4077 -4078 0
-1440 -4076 0
-1452 -4076 0
1439 -1451 0
-1439 1451 0
1453 -1441 0
1441 -1453 0
1454 -1442 0
1442 -1454 0
-1450 4079 0
-1462 4079 0
-1864 4079 0
-2643 4079 0
1450 1462 1864 2643 -4079 0
4080 -4079 0
-4080 4079 0
-1452 4081 0
-1464 4081 0
-1866 4081 0
-2645 4081 0
-4080 4081 0
1452 1464 1866 2645 4080 -4081 0
4082 -4081 0
4081 -4082 0
-1452 -4080 0
-1464 -4080 0
-1866 -4080 0
-2645 -4080 0
-1451 4083 0
-1463 4083 0
1865 4083 0
2644 4083 0
1451 1463 -1865 -2644 -4083 0
-1451 4084 0
1463 4084 0
-1865 4084 0
2644 4084 0
1451 -1463 1865 -2644 -4084 0
-1451 4085 0
1463 4085 0
1865 4085 0
-2644 4085 0
1451 -1463 -1865 2644 -4085 0
1451 4086 0
-1463 4086 0
-1865 4086 0
2644 4086 0
-1451 1463 1865 -2644 -4086 0
1451 4087 0
-1463 4087 0
1865 4087 0
-2644 4087 0
-1451 1463 -1865 2644 -4087 0
1451 -1463 -4083 -4084 -4085 -4086 -4087 0
1451 -1865 -4083 -4084 -4085 -4086 -4087 0
1451 -2644 -4083 -4084 -4085 -4086 -4087 0
-1451 1463 -4083 -4084 -4085 -4086 -4087 0
1463 -1865 -4083 -4084 -4085 -4086 -4087 0
1463 -2644 -4083 -4084 -4085 -4086 -4087 0
-1451 -1865 -4083 -4084 -4085 -4086 -4087 0
-1463 -1865 -4083 -4084 -4085 -4086 -4087 0
-1865 -4083 -4084 -4085 -4086 -4087 0
-1865 -2644 -4083 -4084 -4085 -4086 -4087 0
-1451 -2644 -4083 -4084 -4085 -4086 -4087 0
-1463 -2644 -4083 -4084 -4085 -4086 -4087 0
-2644 -4083 -4084 -4085 -4086 -4087 0
4088 0
4089 0
-1453 4090 0
1465 4090 0
1867 4090 0
1453 -1465 -1867 -4090 0
4091 0
1453 4092 0
-1465 4092 0
1867 4092 0
-1453 1465 -1867 -4092 0
1453 -1465 -4090 -4092 0
1453 -1867 -4090 -4092 0
-1453 1465 -4090 -4092 0
1465 -1867 -4090 -4092 0
-1453 -1867 -4090 -4092 0
-1465 -1867 -4090 -4092 0
-1867 -4090 -4092 0
-1454 4093 0
-1466 4093 0
1868 4093 0
2646 4093 0
1454 1466 -1868 -2646 -4093 0
-1454 4094 0
1466 4094 0
-1868 4094 0
2646 4094 0
1454 -1466 1868 -2646 -4094 0
-1454 4095 0
1466 4095 0
1868 4095 0
-2646 4095 0
1454 -1466 -1868 2646 -4095 0
1454 4096 0
-1466 4096 0
-1868 4096 0
2646 4096 0
-1454 1466 1868 -2646 -4096 0
1454 4097 0
-1466 4097 0
1868 4097 0
-2646 4097 0
-1454 1466 -1868 2646 -4097 0
1454 -1466 -4093 -4094 -4095 -4096 -4097 0
1454 -1868 -4093 -4094 -4095 -4096 -4097 0
1454 -2646 -4093 -4094 -4095 -4096 -4097 0
-1454 1466 -4093 -4094 -4095 -4096 -4097 0
1466 -1868 -4093 -4094 -4095 -4096 -4097 0
1466 -2646 -4093 -4094 -4095 -4096 -4097 0
-1454 -1868 -4093 -4094 -4095 -4096 -4097 0
-1466 -1868 -4093 -4094 -4095 -4096 -4097 0
-1868 -4093 -4094 -4095 -4096 -4097 0
-1868 -2646 -4093 -4094 -4095 -4096 -4097 0
-1454 -2646 -4093 -4094 -4095 -4096 -4097 0
-1466 -2646 -4093 -4094 -4095 -4096 -4097 0
-2646 -4093 -4094 -4095 -4096 -4097 0
-1462 4098 0
-1474 4098 0
1462 1474 -4098 0
4099 -4098 0
-4099 4098 0
-1464 4100 0
-1476 4100 0
-4099 4100 0
1464 1476 4099 -4100 0
4101 -4100 0
4100 -4101 0
-1464 -4099 0
-1476 -4099 0
1463 -1475 0
-1463 1475 0
1477 -1465 0
1465 -1477 0
1478 -1466 0
1466 -1478 0
-1474 4102 0
-1486 4102 0
-1876 4102 0
-2718 4102 0
1474 1486 1876 2718 -4102 0
4103 -4102 0
-4103 4102 0
-1476 4104 0
-1487 4104 0
-1878 4104 0
-2720 4104 0
-4103 4104 0
1476 1487 1878 2720 4103 -4104 0
4105 -4104 0
4104 -4105 0
-1476 -4103 0
-1487 -4103 0
-1878 -4103 0
-2720 -4103 0
-1475 4106 0
1877 4106 0
2719 4106 0
1475 -1877 -2719 -4106 0
4107 0
4108 0
1475 4109 0
-1877 4109 0
2719 4109 0
-1475 1877 -2719 -4109 0
1475 4110 0
1877 4110 0
-2719 4110 0
-1475 -1877 2719 -4110 0
1475 -1877 -4106 -4109 -4110 0
1475 -2719 -4106 -4109 -4110 0
-1475 -4106 -4109 -4110 0
-1475 -1877 -4106 -4109 -4110 0
-1877 -4106 -4109 -4110 0
-1877 -2719 -4106 -4109 -4110 0
-1475 -2719 -4106 -4109 -4110 0
-2719 -4106 -4109 -4110 0
4111 0
4112 0
4113 0
4114 0
1477 4115 0
1879 4115 0
1477 -1879 -4115 0
-1477 -4115 0
-1477 -1879 -4115 0
-1879 -4115 0
-1478 4116 0
1880 4116 0
2721 4116 0
1478 -1880 -2721 -4116 0
4117 0
4118 0
1478 4119 0
-1880 4119 0
2721 4119 0
-1478 1880 -2721 -4119 0
1478 4120 0
1880 4120 0
-2721 4120 0
-1478 -1880 2721 -4120 0
1478 -1880 -4116 -4119 -4120 0
1478 -2721 -4116 -4119 -4120 0
-1478 -4116 -4119 -4120 0
-1478 -1880 -4116 -4119 -4120 0
-1880 -4116 -4119 -4120 0
-1880 -2721 -4116 -4119 -4120 0
-1478 -2721 -4116 -4119 -4120 0
-2721 -4116 -4119 -4120 0
4121 -1486 0
1486 -4121 0
-1487 4122 0
-4121 4122 0
1487 4121 -4122 0
4123 -4122 0
4122 -4123 0
-1487 -4121 0
-4124 0
-4125 0
-4126 0
4127 -1495 0
1495 -4127 0
-1496 4128 0
-4127 4128 0
1496 4127 -4128 0
4129 -4128 0
4128 -4129 0
-1496 -4127 0
-4130 0
-4131 0
-4132 0
-1495 4133 0
-1504 4133 0
-1888 4133 0
-2579 4133 0
1495 1504 1888 2579 -4133 0
4134 -4133 0
-4134 4133 0
-1496 4135 0
-1506 4135 0
-1890 4135 0
-2581 4135 0
-4134 4135 0
1496 1506 1890 2581 4134 -4135 0
4136 -4135 0
4135 -4136 0
-1496 -4134 0
-1506 -4134 0
-1890 -4134 0
-2581 -4134 0
-1505 4137 0
1889 4137 0
2580 4137 0
1505 -1889 -2580 -4137 0
1505 4138 0
-1889 4138 0
2580 4138 0
-1505 1889 -2580 -4138 0
1505 4139 0
1889 4139 0
-2580 4139 0
-1505 -1889 2580 -4139 0
4140 0
4141 0
-1505 -4137 -4138 -4139 0
1505 -1889 -4137 -4138 -4139 0
1505 -2580 -4137 -4138 -4139 0
-1505 -1889 -4137 -4138 -4139 0
-1889 -4137 -4138 -4139 0
-1889 -2580 -4137 -4138 -4139 0
-1505 -2580 -4137 -4138 -4139 0
-2580 -4137 -4138 -4139 0
4142 0
4143 0
1507 4144 0
1891 4144 0
4145 0
4146 0
-1507 -4144 0
1507 -1891 -4144 0
-1507 -1891 -4144 0
-1891 -4144 0
-1508 4147 0
1892 4147 0
2582 4147 0
1508 -1892 -2582 -4147 0
1508 4148 0
-1892 4148 0
2582 4148 0
-1508 1892 -2582 -4148 0
1508 4149 0
1892 4149 0
-2582 4149 0
-1508 -1892 2582 -4149 0
4150 0
4151 0
-1508 -4147 -4148 -4149 0
1508 -1892 -4147 -4148 -4149 0
1508 -2582 -4147 -4148 -4149 0
-1508 -1892 -4147 -4148 -4149 0
-1892 -4147 -4148 -4149 0
-1892 -2582 -4147 -4148 -4149 0
-1508 -2582 -4147 -4148 -4149 0
-2582 -4147 -4148 -4149 0
-1504 4152 0
-1516 4152 0
1504 1516 -4152 0
4153 -4152 0
-4153 4152 0
-1506 4154 0
-1518 4154 0
-4153 4154 0
1506 1518 4153 -4154 0
4155 -4154 0
4154 -4155 0
-1506 -4153 0
-1518 -4153 0
1505 -1517 0
-1505 1517 0
1519 -1507 0
1507 -1519 0
1520 -1508 0
1508 -1520 0
-1516 4156 0
-1528 4156 0
-1900 4156 0
-2654 4156 0
1516 1528 1900 2654 -4156 0
4157 -4156 0
-4157 4156 0
-1518 4158 0
-1530 4158 0
-1902 4158 0
-2656 4158 0
-4157 4158 0
1518 1530 1902 2656 4157 -4158 0
4159 -4158 0
4158 -4159 0
-1518 -4157 0
-1530 -4157 0
-1902 -4157 0
-2656 -4157 0
-1517 4160 0
-1529 4160 0
1901 4160 0
2655 4160 0
1517 1529 -1901 -2655 -4160 0
-1517 4161 0
1529 4161 0
-1901 4161 0
2655 4161 0
1517 -1529 1901 -2655 -4161 0
-1517 4162 0
1529 4162 0
1901 4162 0
-2655 4162 0
1517 -1529 -1901 2655 -4162 0
1517 4163 0
-1529 4163 0
-1901 4163 0
2655 4163 0
-1517 1529 1901 -2655 -4163 0
1517 4164 0
-1529 4164 0
1901 4164 0
-2655 4164 0
-1517 1529 -1901 2655 -4164 0
1517 -1529 -4160 -4161 -4162 -4163 -4164 0
1517 -1901 -4160 -4161 -4162 -4163 -4164 0
1517 -2655 -4160 -4161 -4162 -4163 -4164 0
-1517 1529 -4160 -4161 -4162 -4163 -4164 0
1529 -1901 -4160 -4161 -4162 -4163 -4164 0
1529 -2655 -4160 -4161 -4162 -4163 -4164 0
-1517 -1901 -4160 -4161 -4162 -4163 -4164 0
-1529 -1901 -4160 -4161 -4162 -4163 -4164 0
-1901 -4160 -4161 -4162 -4163 -4164 0
-1901 -2655 -4160 -4161 -4162 -4163 -4164 0
-1517 -2655 -4160 -4161 -4162 -4163 -4164 0
-1529 -2655 -4160 -4161 -4162 -4163 -4164 0
-2655 -4160 -4161 -4162 -4163 -4164 0
4165 0
4166 0
-1519 4167 0
1531 4167 0
1903 4167 0
1519 -1531 -1903 -4167 0
4168 0
1519 4169 0
-1531 4169 0
1903 4169 0
-1519 1531 -1903 -4169 0
1519 -1531 -4167 -4169 0
1519 -1903 -4167 -4169 0
-1519 1531 -4167 -4169 0
1531 -1903 -4167 -4169 0
-1519 -1903 -4167 -4169 0
-1531 -1903 -4167 -4169 0
-1903 -4167 -4169 0
-1520 4170 0
-1532 4170 0
1904 4170 0
2657 4170 0
1520 1532 -1904 -2657 -4170 0
-1520 4171 0
1532 4171 0
-1904 4171 0
2657 4171 0
1520 -1532 1904 -2657 -4171 0
-1520 4172 0
1532 4172 0
1904 4172 0
-2657 4172 0
1520 -1532 -1904 2657 -4172 0
1520 4173 0
-1532 4173 0
-1904 4173 0
2657 4173 0
-1520 1532 1904 -2657 -4173 0
1520 4174 0
-1532 4174 0
1904 4174 0
-2657 4174 0
-1520 1532 -1904 2657 -4174 0
1520 -1532 -4170 -4171 -4172 -4173 -4174 0
1520 -1904 -4170 -4171 -4172 -4173 -4174 0
1520 -2657 -4170 -4171 -4172 -4173 -4174 0
-1520 1532 -4170 -4171 -4172 -4173 -4174 0
1532 -1904 -4170 -4171 -4172 -4173 -4174 0
1532 -2657 -4170 -4171 -4172 -4173 -4174 0
-1520 -1904 -4170 -4171 -4172 -4173 -4174 0
-1532 -1904 -4170 -4171 -4172 -4173 -4174 0
-1904 -4170 -4171 -4172 -4173 -4174 0
-1904 -2657 -4170 -4171 -4172 -4173 -4174 0
-1520 -2657 -4170 -4171 -4172 -4173 -4174 0
-1532 -2657 -4170 -4171 -4172 -4173 -4174 0
-2657 -4170 -4171 -4172 -4173 -4174 0
-1528 4175 0
-1540 4175 0
1528 1540 -4175 0
4176 -4175 0
-4176 4175 0
-1530 4177 0
-1542 4177 0
-4176 4177 0
1530 1542 4176 -4177 0
4178 -4177 0
4177 -4178 0
-1530 -4176 0
-1542 -4176 0
1529 -1541 0
-1529 1541 0
1543 -1531 0
1531 -1543 0
1544 -1532 0
1532 -1544 0
-1540 4179 0
-1552 4179 0
-1912 4179 0
-2729 4179 0
1540 1552 1912 2729 -4179 0
4180 -4179 0
-4180 4179 0
-1542 4181 0
-1553 4181 0
-1914 4181 0
-2731 4181 0
-4180 4181 0
1542 1553 1914 2731 4180 -4181 0
4182 -4181 0
4181 -4182 0
-1542 -4180 0
-1553 -4180 0
-1914 -4180 0
-2731 -4180 0
-1541 4183 0
1913 4183 0
2730 4183 0
1541 -1913 -2730 -4183 0
4184 0
4185 0
1541 4186 0
-1913 4186 0
2730 4186 0
-1541 1913 -2730 -4186 0
1541 4187 0
1913 4187 0
-2730 4187 0
-1541 -1913 2730 -4187 0
1541 -1913 -4183 -4186 -4187 0
1541 -2730 -4183 -4186 -4187 0
-1541 -4183 -4186 -4187 0
-1541 -1913 -4183 -4186 -4187 0
-1913 -4183 -4186 -4187 0
-1913 -2730 -4183 -4186 -4187 0
-1541 -2730 -4183 -4186 -4187 0
-2730 -4183 -4186 -4187 0
4188 0
4189 0
4190 0
4191 0
1543 4192 0
1915 4192 0
1543 -1915 -4192 0
-1543 -4192 0
-1543 -1915 -4192 0
-1915 -4192 0
-1544 4193 0
1916 4193 0
2732 4193 0
1544 -1916 -2732 -4193 0
4194 0
4195 0
1544 4196 0
-1916 4196 0
2732 4196 0
-1544 1916 -2732 -4196 0
1544 4197 0
1916 4197 0
-2732 4197 0
-1544 -1916 2732 -4197 0
1544 -1916 -4193 -4196 -4197 0
1544 -2732 -4193 -4196 -4197 0
-1544 -4193 -4196 -4197 0
-1544 -1916 -4193 -4196 -4197 0
-1916 -4193 -4196 -4197 0
-1916 -2732 -4193 -4196 -4197 0
-1544 -2732 -4193 -4196 -4197 0
-2732 -4193 -4196 -4197 0
4198 -1552 0
1552 -4198 0
-1553 4199 0
-4198 4199 0
1553 4198 -4199 0
4200 -4199 0
4199 -4200 0
-1553 -4198 0
-4201 0
-4202 0
-4203 0
4204 -1561 0
1561 -4204 0
-1562 4205 0
-4204 4205 0
1562 4204 -4205 0
4206 -4205 0
4205 -4206 0
-1562 -4204 0
-4207 0
-4208 0
-4209 0
-1561 4210 0
-1570 4210 0
-1924 4210 0
-2590 4210 0
1561 1570 1924 2590 -4210 0
4211 -4210 0
-4211 4210 0
-1562 4212 0
-1572 4212 0
-1926 4212 0
-2592 4212 0
-4211 4212 0
1562 1572 1926 2592 4211 -4212 0
4213 -4212 0
4212 -4213 0
-1562 -4211 0
-1572 -4211 0
-1926 -4211 0
-2592 -4211 0
-1571 4214 0
1925 4214 0
2591 4214 0
1571 -1925 -2591 -4214 0
1571 4215 0
-1925 4215 0
2591 4215 0
-1571 1925 -2591 -4215 0
1571 4216 0
1925 4216 0
-2591 4216 0
-1571 -1925 2591 -4216 0
4217 0
4218 0
-1571 -4214 -4215 -4216 0
1571 -1925 -4214 -4215 -4216 0
1571 -2591 -4214 -4215 -4216 0
-1571 -1925 -4214 -4215 -4216 0
-1925 -4214 -4215 -4216 0
-1925 -2591 -4214 -4215 -4216 0
-1571 -2591 -4214 -4215 -4216 0
-2591 -4214 -4215 -4216 0
4219 0
4220 0
1573 4221 0
1927 4221 0
4222 0
4223 0
-1573 -4221 0
1573 -1927 -4221 0
-1573 -1927 -4221 0
-1927 -4221 0
-1574 4224 0
1928 4224 0
2593 4224 0
1574 -1928 -2593 -4224 0
1574 4225 0
-1928 4225 0
2593 4225 0
-1574 1928 -2593 -4225 0
1574 4226 0
1928 4226 0
-2593 4226 0
-1574 -1928 2593 -4226 0
4227 0
4228 0
-1574 -4224 -4225 -4226 0
1574 -1928 -4224 -4225 -4226 0
1574 -2593 -4224 -4225 -4226 0
-1574 -1928 -4224 -4225 -4226 0
-1928 -4224 -4225 -4226 0
-1928 -2593 -4224 -4225 -4226 0
-1574 -2593 -4224 -4225 -4226 0
-2593 -4224 -4225 -4226 0
-1570 4229 0
-1582 4229 0
1570 1582 -4229 0
4230 -4229 0
-4230 4229 0
-1572 4231 0
-1584 4231 0
-4230 4231 0
1572 1584 4230 -4231 0
4232 -4231 0
4231 -4232 0
-1572 -4230 0
-1584 -4230 0
1571 -1583 0
-1571 1583 0
1585 -1573 0
1573 -1585 0
1586 -1574 0
1574 -1586 0
-1582 4233 0
-1594 4233 0
-1936 4233 0
-2665 4233 0
1582 1594 1936 2665 -4233 0
4234 -4233 0
-4234 4233 0
-1584 4235 0
-1596 4235 0
-1938 4235 0
-2667 4235 0
-4234 4235 0
1584 1596 1938 2667 4234 -4235 0
4236 -4235 0
4235 -4236 0
-1584 -4234 0
-1596 -4234 0
-1938 -4234 0
-2667 -4234 0
-1583 4237 0
-1595 4237 0
1937 4237 0
2666 4237 0
1583 1595 -1937 -2666 -4237 0
-1583 4238 0
1595 4238 0
-1937 4238 0
2666 4238 0
1583 -1595 1937 -2666 -4238 0
-1583 4239 0
1595 4239 0
1937 4239 0
-2666 4239 0
1583 -1595 -1937 2666 -4239 0
1583 4240 0
-1595 4240 0
-1937 4240 0
2666 4240 0
-1583 1595 1937 -2666 -4240 0
1583 4241 0
-1595 4241 0
1937 4241 0
-2666 4241 0
-1583 1595 -1937 2666 -4241 0
1583 -1595 -4237 -4238 -4239 -4240 -4241 0
1583 -1937 -4237 -4238 -4239 -4240 -4241 0
1583 -2666 -4237 -4238 -4239 -4240 -4241 0
-1583 1595 -4237 -4238 -4239 -4240 -4241 0
1595 -1937 -4237 -4238 -4239 -4240 -4241 0
1595 -2666 -4237 -4238 -4239 -4240 -4241 0
-1583 -1937 -4237 -4238 -4239 -4240 -4241 0
-1595 -1937 -4237 -4238 -4239 -4240 -4241 0
-1937 -4237 -4238 -4239 -4240 -4241 0
-1937 -2666 -4237 -4238 -4239 -4240 -4241 0
-1583 -2666 -4237 -4238 -4239 -4240 -4241 0
-1595 -2666 -4237 -4238 -4239 -4240 -4241 0
-2666 -4237 -4238 -4239 -4240 -4241 0
4242 0
4243 0
-1585 4244 0
1597 4244 0
1939 4244 0
1585 -1597 -1939 -4244 0
4245 0
1585 4246 0
-1597 4246 0
1939 4246 0
-1585 1597 -1939 -4246 0
1585 -1597 -4244 -4246 0
1585 -1939 -4244 -4246 0
-1585 1597 -4244 -4246 0
1597 -1939 -4244 -4246 0
-1585 -1939 -4244 -4246 0
-1597 -1939 -4244 -4246 0
-1939 -4244 -4246 0
-1586 4247 0
-1598 4247 0
1940 4247 0
2668 4247 0
1586 1598 -1940 -2668 -4247 0
-1586 4248 0
1598 4248 0
-1940 4248 0
2668 4248 0
1586 -1598 1940 -2668 -4248 0
-1586 4249 0
1598 4249 0
1940 4249 0
-2668 4249 0
1586 -1598 -1940 2668 -4249 0
1586 4250 0
-1598 4250 0
-1940 4250 0
2668 4250 0
-1586 1598 1940 -2668 -4250 0
1586 4251 0
-1598 4251 0
1940 4251 0
-2668 4251 0
-1586 1598 -1940 2668 -4251 0
1586 -1598 -4247 -4248 -4249 -4250 -4251 0
1586 -1940 -4247 -4248 -4249 -4250 -4251 0
1586 -2668 -4247 -4248 -4249 -4250 -4251 0
-1586 1598 -4247 -4248 -4249 -4250 -4251 0
1598 -1940 -4247 -4248 -4249 -4250 -4251 0
1598 -2668 -4247 -4248 -4249 -4250 -4251 0
-1586 -1940 -4247 -4248 -4249 -4250 -4251 0
-1598 -1940 -4247 -4248 -4249 -4250 -4251 0
-1940 -4247 -4248 -4249 -4250 -4251 0
-1940 -2668 -4247 -4248 -4249 -4250 -4251 0
-1586 -2668 -4247 -4248 -4249 -4250 -4251 0
-1598 -2668 -4247 -4248 -4249 -4250 -4251 0
-2668 -4247 -4248 -4249 -4250 -4251 0
-1594 4252 0
-1606 4252 0
1594 1606 -4252 0
4253 -4252 0
-4253 4252 0
-1596 4254 0
-1608 4254 0
-4253 4254 0
1596 1608 4253 -4254 0
4255 -4254 0
4254 -4255 0
-1596 -4253 0
-1608 -4253 0
1595 -1607 0
-1595 1607 0
1609 -1597 0
1597 -1609 0
1610 -1598 0
1598 -1610 0
-1606 4256 0
-1618 4256 0
-1948 4256 0
-2740 4256 0
1606 1618 1948 2740 -4256 0
4257 -4256 0
-4257 4256 0
-1608 4258 0
-1619 4258 0
-1950 4258 0
-2742 4258 0
-4257 4258 0
1608 1619 1950 2742 4257 -4258 0
4259 -4258 0
4258 -4259 0
-1608 -4257 0
-1619 -4257 0
-1950 -4257 0
-2742 -4257 0
-1607 4260 0
1949 4260 0
2741 4260 0
1607 -1949 -2741 -4260 0
4261 0
4262 0
1607 4263 0
-1949 4263 0
2741 4263 0
-1607 1949 -2741 -4263 0
1607 4264 0
1949 4264 0
-2741 4264 0
-1607 -1949 2741 -4264 0
1607 -1949 -4260 -4263 -4264 0
1607 -2741 -4260 -4263 -4264 0
-1607 -4260 -4263 -4264 0
-1607 -1949 -4260 -4263 -4264 0
-1949 -4260 -4263 -4264 0
-1949 -2741 -4260 -4263 -4264 0
-1607 -2741 -4260 -4263 -4264 0
-2741 -4260 -4263 -4264 0
4265 0
4266 0
4267 0
4268 0
1609 4269 0
1951 4269 0
1609 -1951 -4269 0
-1609 -4269 0
-1609 -1951 -4269 0
-1951 -4269 0
-1610 4270 0
1952 4270 0
2743 4270 0
1610 -1952 -2743 -4270 0
4271 0
4272 0
1610 4273 0
-1952 4273 0
2743 4273 0
-1610 1952 -2743 -4273 0
1610 4274 0
1952 4274 0
-2743 4274 0
-1610 -1952 2743 -4274 0
1610 -1952 -4270 -4273 -4274 0
1610 -2743 -4270 -4273 -4274 0
-1610 -4270 -4273 -4274 0
-1610 -1952 -4270 -4273 -4274 0
-1952 -4270 -4273 -4274 0
-1952 -2743 -4270 -4273 -4274 0
-1610 -2743 -4270 -4273 -4274 0
-2743 -4270 -4273 -4274 0
4275 -1618 0
1618 -4275 0
-1619 4276 0
-4275 4276 0
1619 4275 -4276 0
4277 -4276 0
4276 -4277 0
-1619 -4275 0
-4278 0
-4279 0
-4280 0
4281 -1627 0
1627 -4281 0
-1628 4282 0
-4281 4282 0
1628 4281 -4282 0
4283 -4282 0
4282 -4283 0
-1628 -4281 0
-4284 0
-4285 0
-4286 0
-1627 4287 0
-1636 4287 0
-1960 4287 0
-2601 4287 0
1627 1636 1960 2601 -4287 0
4288 -4287 0
-4288 4287 0
-1628 4289 0
-1638 4289 0
-1962 4289 0
-2603 4289 0
-4288 4289 0
1628 1638 1962 2603 4288 -4289 0
4290 -4289 0
4289 -4290 0
-1628 -4288 0
-1638 -4288 0
-1962 -4288 0
-2603 -4288 0
-1637 4291 0
1961 4291 0
2602 4291 0
1637 -1961 -2602 -4291 0
1637 4292 0
-1961 4292 0
2602 4292 0
-1637 1961 -2602 -4292 0
1637 4293 0
1961 4293 0
-2602 4293 0
-1637 -1961 2602 -4293 0
4294 0
4295 0
-1637 -4291 -4292 -4293 0
1637 -1961 -4291 -4292 -4293 0
1637 -2602 -4291 -4292 -4293 0
-1637 -1961 -4291 -4292 -4293 0
-1961 -4291 -4292 -4293 0
-1961 -2602 -4291 -4292 -4293 0
-1637 -2602 -4291 -4292 -4293 0
-2602 -4291 -4292 -4293 0
4296 0
4297 0
1639 4298 0
1963 4298 0
4299 0
4300 0
-1639 -4298 0
1639 -1963 -4298 0
-1639 -1963 -4298 0
-1963 -4298 0
-1640 4301 0
1964 4301 0
2604 4301 0
1640 -1964 -2604 -4301 0
1640 4302 0
-1964 4302 0
2604 4302 0
-1640 1964 -2604 -4302 0
1640 4303 0
1964 4303 0
-2604 4303 0
-1640 -1964 2604 -4303 0
4304 0
4305 0
-1640 -4301 -4302 -4303 0
1640 -1964 -4301 -4302 -4303 0
1640 -2604 -4301 -4302 -4303 0
-1640 -1964 -4301 -4302 -4303 0
-1964 -4301 -4302 -4303 0
-1964 -2604 -4301 -4302 -4303 0
-1640 -2604 -4301 -4302 -4303 0
-2604 -4301 -4302 -4303 0
-1636 4306 0
-1648 4306 0
1636 1648 -4306 0
4307 -4306 0
-4307 4306 0
-1638 4308 0
-1650 4308 0
-4307 4308 0
1638 1650 4307 -4308 0
4309 -4308 0
4308 -4309 0
-1638 -4307 0
-1650 -4307 0
1637 -1649 0
-1637 1649 0
1651 -1639 0
1639 -1651 0
1652 -1640 0
1640 -1652 0
-1648 4310 0
-1660 4310 0
-1972 4310 0
-2676 4310 0
1648 1660 1972 2676 -4310 0
4311 -4310 0
-4311 4310 0
-1650 4312 0
-1662 4312 0
-1974 4312 0
-2678 4312 0
-4311 4312 0
1650 1662 1974 2678 4311 -4312 0
4313 -4312 0
4312 -4313 0
-1650 -4311 0
-1662 -4311 0
-1974 -4311 0
-2678 -4311 0
-1649 4314 0
-1661 4314 0
1973 4314 0
2677 4314 0
1649 1661 -1973 -2677 -4314 0
-1649 4315 0
1661 4315 0
-1973 4315 0
2677 4315 0
1649 -1661 1973 -2677 -4315 0
-1649 4316 0
1661 4316 0
1973 4316 0
-2677 4316 0
1649 -1661 -1973 2677 -4316 0
1649 4317 0
-1661 4317 0
-1973 4317 0
2677 4317 0
-1649 1661 1973 -2677 -4317 0
1649 4318 0
-1661 4318 0
1973 4318 0
-2677 4318 0
-1649 1661 -1973 2677 -4318 0
1649 -1661 -4314 -4315 -4316 -4317 -4318 0
1649 -1973 -4314 -4315 -4316 -4317 -4318 0
1649 -2677 -4314 -4315 -4316 -4317 -4318 0
-1649 1661 -4314 -4315 -4316 -4317 -4318 0
1661 -1973 -4314 -4315 -4316 -4317 -4318 0
1661 -2677 -4314 -4315 -4316 -4317 -4318 0
-1649 -1973 -4314 -4315 -4316 -4317 -4318 0
-1661 -1973 -4314 -4315 -4316 -4317 -4318 0
-1973 -4314 -4315 -4316 -4317 -4318 0
-1973 -2677 -4314 -4315 -4316 -4317 -4318 0
-1649 -2677 -4314 -4315 -4316 -4317 -4318 0
-1661 -2677 -4314 -4315 -4316 -4317 -4318 0
-2677 -4314 -4315 -4316 -4317 -4318 0
4319 0
4320 0
-1651 4321 0
1663 4321 0
1975 4321 0
1651 -1663 -1975 -4321 0
4322 0
1651 4323 0
-1663 4323 0
1975 4323 0
-1651 1663 -1975 -4323 0
1651 -1663 -4321 -4323 0
1651 -1975 -4321 -4323 0
-1651 1663 -4321 -4323 0
1663 -1975 -4321 -4323 0
-1651 -1975 -4321 -4323 0
-1663 -1975 -4321 -4323 0
-1975 -4321 -4323 0
-1652 4324 0
-1664 4324 0
1976 4324 0
2679 4324 0
1652 1664 -1976 -2679 -4324 0
-1652 4325 0
1664 4325 0
-1976 4325 0
2679 4325 0
1652 -1664 1976 -2679 -4325 0
-1652 4326 0
1664 4326 0
1976 4326 0
-2679 4326 0
1652 -1664 -1976 2679 -4326 0
1652 4327 0
-1664 4327 0
-1976 4327 0
2679 4327 0
-1652 1664 1976 -2679 -4327 0
1652 4328 0
-1664 4328 0
1976 4328 0
-2679 4328 0
-1652 1664 -1976 2679 -4328 0
1652 -1664 -4324 -4325 -4326 -4327 -4328 0
1652 -1976 -4324 -4325 -4326 -4327 -4328 0
1652 -2679 -4324 -4325 -4326 -4327 -4328 0
-1652 1664 -4324 -4325 -4326 -4327 -4328 0
1664 -1976 -4324 -4325 -4326 -4327 -4328 0
1664 -2679 -4324 -4325 -4326 -4327 -4328 0
-1652 -1976 -4324 -4325 -4326 -4327 -4328 0
-1664 -1976 -4324 -4325 -4326 -4327 -4328 0
-1976 -4324 -4325 -4326 -4327 -4328 0
-1976 -2679 -4324 -4325 -4326 -4327 -4328 0
-1652 -2679 -4324 -4325 -4326 -4327 -4328 0
-1664 -2679 -4324 -4325 -4326 -4327 -4328 0
-2679 -4324 -4325 -4326 -4327 -4328 0
-1660 4329 0
-1672 4329 0
1660 1672 -4329 0
4330 -4329 0
-4330 4329 0
-1662 4331 0
-1674 4331 0
-4330 4331 0
1662 1674 4330 -4331 0
4332 -4331 0
4331 -4332 0
-1662 -4330 0
-1674 -4330 0
1661 -1673 0
-1661 1673 0
1675 -1663 0
1663 -1675 0
1676 -1664 0
1664 -1676 0
-1672 4333 0
-1684 4333 0
-1984 4333 0
-2751 4333 0
1672 1684 1984 2751 -4333 0
4334 -4333 0
-4334 4333 0
-1674 4335 0
-1685 4335 0
-1986 4335 0
-2753 4335 0
-4334 4335 0
1674 1685 1986 2753 4334 -4335 0
4336 -4335 0
4335 -4336 0
-1674 -4334 0
-1685 -4334 0
-1986 -4334 0
-2753 -4334 0
-1673 4337 0
1985 4337 0
2752 4337 0
1673 -1985 -2752 -4337 0
4338 0
4339 0
1673 4340 0
-1985 4340 0
2752 4340 0
-1673 1985 -2752 -4340 0
1673 4341 0
1985 4341 0
-2752 4341 0
-1673 -1985 2752 -4341 0
1673 -1985 -4337 -4340 -4341 0
1673 -2752 -4337 -4340 -4341 0
-1673 -4337 -4340 -4341 0
-1673 -1985 -4337 -4340 -4341 0
-1985 -4337 -4340 -4341 0
-1985 -2752 -4337 -4340 -4341 0
-1673 -2752 -4337 -4340 -4341 0
-2752 -4337 -4340 -4341 0
4342 0
4343 0
4344 0
4345 0
1675 4346 0
1987 4346 0
1675 -1987 -4346 0
-1675 -4346 0
-1675 -1987 -4346 0
-1987 -4346 0
-1676 4347 0
1988 4347 0
2754 4347 0
1676 -1988 -2754 -4347 0
4348 0
4349 0
1676 4350 0
-1988 4350 0
2754 4350 0
-1676 1988 -2754 -4350 0
1676 4351 0
1988 4351 0
-2754 4351 0
-1676 -1988 2754 -4351 0
1676 -1988 -4347 -4350 -4351 0
1676 -2754 -4347 -4350 -4351 0
-1676 -4347 -4350 -4351 0
-1676 -1988 -4347 -4350 -4351 0
-1988 -4347 -4350 -4351 0
-1988 -2754 -4347 -4350 -4351 0
-1676 -2754 -4347 -4350 -4351 0
-2754 -4347 -4350 -4351 0
4352 -1684 0
1684 -4352 0
-1685 4353 0
-4352 4353 0
1685 4352 -4353 0
4354 -4353 0
4353 -4354 0
-1685 -4352 0
-4355 0
-4356 0
-4357 0
4358 -1693 0
1693 -4358 0
-1694 4359 0
-4358 4359 0
1694 4358 -4359 0
4360 -4359 0
4359 -4360 0
-1694 -4358 0
-4361 0
-4362 0
-4363 0
-1693 4364 0
-1702 4364 0
-1996 4364 0
-2612 4364 0
1693 1702 1996 2612 -4364 0
4365 -4364 0
-4365 4364 0
-1694 4366 0
-1704 4366 0
-1998 4366 0
-2614 4366 0
-4365 4366 0
1694 1704 1998 2614 4365 -4366 0
4367 -4366 0
4366 -4367 0
-1694 -4365 0
-1704 -4365 0
-1998 -4365 0
-2614 -4365 0
-1703 4368 0
1997 4368 0
2613 4368 0
1703 -1997 -2613 -4368 0
1703 4369 0
-1997 4369 0
2613 4369 0
-1703 1997 -2613 -4369 0
1703 4370 0
1997 4370 0
-2613 4370 0
-1703 -1997 2613 -4370 0
4371 0
4372 0
-1703 -4368 -4369 -4370 0
1703 -1997 -4368 -4369 -4370 0
1703 -2613 -4368 -4369 -4370 0
-1703 -1997 -4368 -4369 -4370 0
-1997 -4368 -4369 -4370 0
-1997 -2613 -4368 -4369 -4370 0
-1703 -2613 -4368 -4369 -4370 0
-2613 -4368 -4369 -4370 0
4373 0
4374 0
1705 4375 0
1999 4375 0
4376 0
4377 0
-1705 -4375 0
1705 -1999 -4375 0
-1705 -1999 -4375 0
-1999 -4375 0
-1706 4378 0
2000 4378 0
2615 4378 0
1706 -2000 -2615 -4378 0
1706 4379 0
-2000 4379 0
2615 4379 0
-1706 2000 -2615 -4379 0
1706 4380 0
2000 4380 0
-2615 4380 0
-1706 -2000 2615 -4380 0
4381 0
4382 0
-1706 -4378 -4379 -4380 0
1706 -2000 -4378 -4379 -4380 0
1706 -2615 -4378 -4379 -4380 0
-1706 -2000 -4378 -4379 -4380 0
-2000 -4378 -4379 -4380 0
-2000 -2615 -4378 -4379 -4380 0
-1706 -2615 -4378 -4379 -4380 0
-2615 -4378 -4379 -4380 0
-1702 4383 0
-1714 4383 0
1702 1714 -4383 0
4384 -4383 0
-4384 4383 0
-1704 4385 0
-1716 4385 0
-4384 4385 0
1704 1716 4384 -4385 0
4386 -4385 0
4385 -4386 0
-1704 -4384 0
-1716 -4384 0
1703 -1715 0
-1703 1715 0
1717 -1705 0
1705 -1717 0
1718 -1706 0
1706 -1718 0
-1714 4387 0
-1726 4387 0
-2008 4387 0
-2687 4387 0
1714 1726 2008 2687 -4387 0
4388 -4387 0
-4388 4387 0
-1716 4389 0
-1728 4389 0
-2010 4389 0
-2689 4389 0
-4388 4389 0
1716 1728 2010 2689 4388 -4389 0
4390 -4389 0
4389 -4390 0
-1716 -4388 0
-1728 -4388 0
-2010 -4388 0
-2689 -4388 0
-1715 4391 0
-1727 4391 0
2009 4391 0
2688 4391 0
1715 1727 -2009 -2688 -4391 0
-1715 4392 0
1727 4392 0
-2009 4392 0
2688 4392 0
1715 -1727 2009 -2688 -4392 0
-1715 4393 0
1727 4393 0
2009 4393 0
-2688 4393 0
1715 -1727 -2009 2688 -4393 0
1715 4394 0
-1727 4394 0
-2009 4394 0
2688 4394 0
-1715 1727 2009 -2688 -4394 0
1715 4395 0
-1727 4395 0
2009 4395 0
-2688 4395 0
-1715 1727 -2009 2688 -4395 0
1715 -1727 -4391 -4392 -4393 -4394 -4395 0
1715 -2009 -4391 -4392 -4393 -4394 -4395 0
1715 -2688 -4391 -4392 -4393 -4394 -4395 0
-1715 1727 -4391 -4392 -4393 -4394 -4395 0
1727 -2009 -4391 -4392 -4393 -4394 -4395 0
1727 -2688 -4391 -4392 -4393 -4394 -4395 0
-1715 -2009 -4391 -4392 -4393 -4394 -4395 0
-1727 -2009 -4391 -4392 -4393 -4394 -4395 0
-2009 -4391 -4392 -4393 -4394 -4395 0
-2009 -2688 -4391 -4392 -4393 -4394 -4395 0
-1715 -2688 -4391 -4392 -4393 -4394 -4395 0
-1727 -2688 -4391 -4392 -4393 -4394 -4395 0
-2688 -4391 -4392 -4393 -4394 -4395 0
4396 0
4397 0
-1717 4398 0
1729 4398 0
2011 4398 0
1717 -1729 -2011 -4398 0
4399 0
1717 4400 0
-1729 4400 0
2011 4400 0
-1717 1729 -2011 -4400 0
1717 -1729 -4398 -4400 0
1717 -2011 -4398 -4400 0
-1717 1729 -4398 -4400 0
1729 -2011 -4398 -4400 0
-1717 -2011 -4398 -4400 0
-1729 -2011 -4398 -4400 0
-2011 -4398 -4400 0
-1718 4401 0
-1730 4401 0
2012 4401 0
2690 4401 0
1718 1730 -2012 -2690 -4401 0
-1718 4402 0
1730 4402 0
-2012 4402 0
2690 4402 0
1718 -1730 2012 -2690 -4402 0
-1718 4403 0
1730 4403 0
2012 4403 0
-2690 4403 0
1718 -1730 -2012 2690 -4403 0
1718 4404 0
-1730 4404 0
-2012 4404 0
2690 4404 0
-1718 1730 2012 -2690 -4404 0
1718 4405 0
-1730 4405 0
2012 4405 0
-2690 4405 0
-1718 1730 -2012 2690 -4405 0
1718 -1730 -4401 -4402 -4403 -4404 -4405 0
1718 -2012 -4401 -4402 -4403 -4404 -4405 0
1718 -2690 -4401 -4402 -4403 -4404 -4405 0
-1718 1730 -4401 -4402 -4403 -4404 -4405 0
1730 -2012 -4401 -4402 -4403 -4404 -4405 0
1730 -2690 -4401 -4402 -4403 -4404 -4405 0
-1718 -2012 -4401 -4402 -4403 -4404 -4405 0
-1730 -2012 -4401 -4402 -4403 -4404 -4405 0
-2012 -4401 -4402 -4403 -4404 -4405 0
-2012 -2690 -4401 -4402 -4403 -4404 -4405 0
-1718 -2690 -4401 -4402 -4403 -4404 -4405 0
-1730 -2690 -4401 -4402 -4403 -4404 -4405 0
-2690 -4401 -4402 -4403 -4404 -4405 0
-1726 4406 0
-1738 4406 0
1726 1738 -4406 0
4407 -4406 0
-4407 4406 0
-1728 4408 0
-1740 4408 0
-4407 4408 0
1728 1740 4407 -4408 0
4409 -4408 0
4408 -4409 0
-1728 -4407 0
-1740 -4407 0
1727 -1739 0
-1727 1739 0
1741 -1729 0
1729 -1741 0
1742 -1730 0
1730 -1742 0
-1738 4410 0
-1750 4410 0
-2020 4410 0
-2762 4410 0
1738 1750 2020 2762 -4410 0
4411 -4410 0
-4411 4410 0
-1740 4412 0
-1751 4412 0
-2022 4412 0
-2764 4412 0
-4411 4412 0
1740 1751 2022 2764 4411 -4412 0
4413 -4412 0
4412 -4413 0
-1740 -4411 0
-1751 -4411 0
-2022 -4411 0
-2764 -4411 0
-1739 4414 0
2021 4414 0
2763 4414 0
1739 -2021 -2763 -4414 0
4415 0
4416 0
1739 4417 0
-2021 4417 0
2763 4417 0
-1739 2021 -2763 -4417 0
1739 4418 0
2021 4418 0
-2763 4418 0
-1739 -2021 2763 -4418 0
1739 -2021 -4414 -4417 -4418 0
1739 -2763 -4414 -4417 -4418 0
-1739 -4414 -4417 -4418 0
-1739 -2021 -4414 -4417 -4418 0
-2021 -4414 -4417 -4418 0
-2021 -2763 -4414 -4417 -4418 0
-1739 -2763 -4414 -4417 -4418 0
-2763 -4414 -4417 -4418 0
4419 0
4420 0
4421 0
4422 0
1741 4423 0
2023 4423 0
1741 -2023 -4423 0
-1741 -4423 0
-1741 -2023 -4423 0
-2023 -4423 0
-1742 4424 0
2024 4424 0
2765 4424 0
1742 -2024 -2765 -4424 0
4425 0
4426 0
1742 4427 0
-2024 4427 0
2765 4427 0
-1742 2024 -2765 -4427 0
1742 4428 0
2024 4428 0
-2765 4428 0
-1742 -2024 2765 -4428 0
1742 -2024 -4424 -4427 -4428 0
1742 -2765 -4424 -4427 -4428 0
-1742 -4424 -4427 -4428 0
-1742 -2024 -4424 -4427 -4428 0
-2024 -4424 -4427 -4428 0
-2024 -2765 -4424 -4427 -4428 0
-1742 -2765 -4424 -4427 -4428 0
-2765 -4424 -4427 -4428 0
4429 -1750 0
1750 -4429 0
-1751 4430 0
-4429 4430 0
1751 4429 -4430 0
4431 -4430 0
4430 -4431 0
-1751 -4429 0
-4432 0
-4433 0
-4434 0
-4435 0
-4436 0
-4437 0
-4438 0
-4439 0
-4440 0
-4441 0
-4442 0
-4443 0
-4444 0
-1767 4445 0
2032 4445 0
2623 4445 0
1767 -2032 -2623 -4445 0
1767 4446 0
-2032 4446 0
2623 4446 0
-1767 2032 -2623 -4446 0
1767 4447 0
2032 4447 0
-2623 4447 0
-1767 -2032 2623 -4447 0
4448 0
4449 0
-1767 -4445 -4446 -4447 0
1767 -2032 -4445 -4446 -4447 0
1767 -2623 -4445 -4446 -4447 0
-1767 -2032 -4445 -4446 -4447 0
-2032 -4445 -4446 -4447 0
-2032 -2623 -4445 -4446 -4447 0
-1767 -2623 -4445 -4446 -4447 0
-2623 -4445 -4446 -4447 0
4450 0
4451 0
1768 4452 0
2033 4452 0
4453 0
4454 0
-1768 -4452 0
1768 -2033 -4452 0
-1768 -2033 -4452 0
-2033 -4452 0
-1769 4455 0
2034 4455 0
2624 4455 0
1769 -2034 -2624 -4455 0
1769 4456 0
-2034 4456 0
2624 4456 0
-1769 2034 -2624 -4456 0
1769 4457 0
2034 4457 0
-2624 4457 0
-1769 -2034 2624 -4457 0
4458 0
4459 0
-1769 -4455 -4456 -4457 0
1769 -2034 -4455 -4456 -4457 0
1769 -2624 -4455 -4456 -4457 0
-1769 -2034 -4455 -4456 -4457 0
-2034 -4455 -4456 -4457 0
-2034 -2624 -4455 -4456 -4457 0
-1769 -2624 -4455 -4456 -4457 0
-2624 -4455 -4456 -4457 0
-4460 0
-4461 0
-4462 0
-4463 0
1767 -1778 0
-1767 1778 0
1779 -1768 0
1768 -1779 0
1780 -1769 0
1769 -1780 0
-4464 0
-4465 0
-4466 0
-4467 0
-1778 4468 0
-1789 4468 0
2043 4468 0
2698 4468 0
1778 1789 -2043 -2698 -4468 0
-1778 4469 0
1789 4469 0
-2043 4469 0
2698 4469 0
1778 -1789 2043 -2698 -4469 0
-1778 4470 0
1789 4470 0
2043 4470 0
-2698 4470 0
1778 -1789 -2043 2698 -4470 0
1778 4471 0
-1789 4471 0
-2043 4471 0
2698 4471 0
-1778 1789 2043 -2698 -4471 0
1778 4472 0
-1789 4472 0
2043 4472 0
-2698 4472 0
-1778 1789 -2043 2698 -4472 0
1778 -1789 -4468 -4469 -4470 -4471 -4472 0
1778 -2043 -4468 -4469 -4470 -4471 -4472 0
1778 -2698 -4468 -4469 -4470 -4471 -4472 0
-1778 1789 -4468 -4469 -4470 -4471 -4472 0
1789 -2043 -4468 -4469 -4470 -4471 -4472 0
1789 -2698 -4468 -4469 -4470 -4471 -4472 0
-1778 -2043 -4468 -4469 -4470 -4471 -4472 0
-1789 -2043 -4468 -4469 -4470 -4471 -4472 0
-2043 -4468 -4469 -4470 -4471 -4472 0
-2043 -2698 -4468 -4469 -4470 -4471 -4472 0
-1778 -2698 -4468 -4469 -4470 -4471 -4472 0
-1789 -2698 -4468 -4469 -4470 -4471 -4472 0
-2698 -4468 -4469 -4470 -4471 -4472 0
4473 0
4474 0
-1779 4475 0
1790 4475 0
2044 4475 0
1779 -1790 -2044 -4475 0
4476 0
1779 4477 0
-1790 4477 0
2044 4477 0
-1779 1790 -2044 -4477 0
1779 -1790 -4475 -4477 0
1779 -2044 -4475 -4477 0
-1779 1790 -4475 -4477 0
1790 -2044 -4475 -4477 0
-1779 -2044 -4475 -4477 0
-1790 -2044 -4475 -4477 0
-2044 -4475 -4477 0
-1780 4478 0
-1791 4478 0
2045 4478 0
2699 4478 0
1780 1791 -2045 -2699 -4478 0
-1780 4479 0
1791 4479 0
-2045 4479 0
2699 4479 0
1780 -1791 2045 -2699 -4479 0
-1780 4480 0
1791 4480 0
2045 4480 0
-2699 4480 0
1780 -1791 -2045 2699 -4480 0
1780 4481 0
-1791 4481 0
-2045 4481 0
2699 4481 0
-1780 1791 2045 -2699 -4481 0
1780 4482 0
-1791 4482 0
2045 4482 0
-2699 4482 0
-1780 1791 -2045 2699 -4482 0
1780 -1791 -4478 -4479 -4480 -4481 -4482 0
1780 -2045 -4478 -4479 -4480 -4481 -4482 0
1780 -2699 -4478 -4479 -4480 -4481 -4482 0
-1780 1791 -4478 -4479 -4480 -4481 -4482 0
1791 -2045 -4478 -4479 -4480 -4481 -4482 0
1791 -2699 -4478 -4479 -4480 -4481 -4482 0
-1780 -2045 -4478 -4479 -4480 -4481 -4482 0
-1791 -2045 -4478 -4479 -4480 -4481 -4482 0
-2045 -4478 -4479 -4480 -4481 -4482 0
-2045 -2699 -4478 -4479 -4480 -4481 -4482 0
-1780 -2699 -4478 -4479 -4480 -4481 -4482 0
-1791 -2699 -4478 -4479 -4480 -4481 -4482 0
-2699 -4478 -4479 -4480 -4481 -4482 0
-4483 0
-4484 0
-4485 0
-4486 0
1789 -1800 0
-1789 1800 0
1801 -1790 0
1790 -1801 0
1802 -1791 0
1791 -1802 0
-4487 0
-4488 0
-4489 0
-4490 0
-1800 4491 0
2054 4491 0
2773 4491 0
1800 -2054 -2773 -4491 0
4492 0
4493 0
1800 4494 0
-2054 4494 0
2773 4494 0
-1800 2054 -2773 -4494 0
1800 4495 0
2054 4495 0
-2773 4495 0
-1800 -2054 2773 -4495 0
1800 -2054 -4491 -4494 -4495 0
1800 -2773 -4491 -4494 -4495 0
-1800 -4491 -4494 -4495 0
-1800 -2054 -4491 -4494 -4495 0
-2054 -4491 -4494 -4495 0
-2054 -2773 -4491 -4494 -4495 0
-1800 -2773 -4491 -4494 -4495 0
-2773 -4491 -4494 -4495 0
4496 0
4497 0
4498 0
4499 0
1801 4500 0
2055 4500 0
1801 -2055 -4500 0
-1801 -4500 0
-1801 -2055 -4500 0
-2055 -4500 0
-1802 4501 0
2056 4501 0
2774 4501 0
1802 -2056 -2774 -4501 0
4502 0
4503 0
1802 4504 0
-2056 4504 0
2774 4504 0
-1802 2056 -2774 -4504 0
1802 4505 0
2056 4505 0
-2774 4505 0
-1802 -2056 2774 -4505 0
1802 -2056 -4501 -4504 -4505 0
1802 -2774 -4501 -4504 -4505 0
-1802 -4501 -4504 -4505 0
-1802 -2056 -4501 -4504 -4505 0
-2056 -4501 -4504 -4505 0
-2056 -2774 -4501 -4504 -4505 0
-1802 -2774 -4501 -4504 -4505 0
-2774 -4501 -4504 -4505 0
-4506 0
-4507 0
-4508 0
-4509 0
-4510 0
-4511 0
2354 2356 2390 2392 2426 2428 2462 2464 2498 2500 0
-2354 4512 0
-2390 4512 0
-2426 4512 0
-2462 4512 0
-2498 4512 0
2354 2390 2426 2462 2498 -4512 0
4513 -4512 0
-4513 4512 0
-2356 4514 0
-2392 4514 0
-2428 4514 0
-2464 4514 0
-2500 4514 0
-4513 4514 0
2356 2392 2428 2464 2500 4513 -4514 0
4515 -4514 0
4514 -4515 0
-2356 -4513 0
-2392 -4513 0
-2428 -4513 0
-2464 -4513 0
-2500 -4513 0
2366 2368 2402 2404 0
-2366 4516 0
-2402 4516 0
2366 2402 -4516 0
4517 -4516 0
-4517 4516 0
-2368 4518 0
-2404 4518 0
-4517 4518 0
2368 2404 4517 -4518 0
4519 -4518 0
4518 -4519 0
-2368 -4517 0
-2404 -4517 0
2474 2476 2510 2512 0
-2474 4520 0
-2510 4520 0
2474 2510 -4520 0
4521 -4520 0
-4521 4520 0
-2476 4522 0
-2512 4522 0
-4521 4522 0
2476 2512 4521 -4522 0
4523 -4522 0
4522 -4523 0
-2476 -4521 0
-2512 -4521 0
2355 2391 2427 2463 2499 0
4524 -2355 0
2355 -4524 0
-2391 4525 0
-4524 4525 0
2391 4524 -4525 0
4526 -4525 0
-4526 4525 0
-2391 -4524 0
-2427 4527 0
-4526 4527 0
2427 4526 -4527 0
4528 -4527 0
-4528 4527 0
-2427 -4526 0
-2463 4529 0
-4528 4529 0
2463 4528 -4529 0
4530 -4529 0
-4530 4529 0
-2463 -4528 0
-2499 4531 0
-4530 4531 0
2499 4530 -4531 0
4532 -4531 0
4531 -4532 0
-2499 -4530 0
-2357 4533 0
-2393 4533 0
-2429 4533 0
2465 4533 0
2501 4533 0
2357 2393 2429 -2465 -2501 -4533 0
-2357 4534 0
-2393 4534 0
2429 4534 0
-2465 4534 0
2501 4534 0
2357 2393 -2429 2465 -2501 -4534 0
-2357 4535 0
-2393 4535 0
2429 4535 0
2465 4535 0
-2501 4535 0
2357 2393 -2429 -2465 2501 -4535 0
-2357 4536 0
2393 4536 0
-2429 4536 0
-2465 4536 0
2501 4536 0
2357 -2393 2429 2465 -2501 -4536 0
-2357 4537 0
2393 4537 0
-2429 4537 0
2465 4537 0
-2501 4537 0
2357 -2393 2429 -2465 2501 -4537 0
-2357 4538 0
2393 4538 0
2429 4538 0
-2465 4538 0
-2501 4538 0
2357 -2393 -2429 2465 2501 -4538 0
2357 4539 0
-2393 4539 0
-2429 4539 0
-2465 4539 0
2501 4539 0
-2357 2393 2429 2465 -2501 -4539 0
2357 4540 0
-2393 4540 0
-2429 4540 0
2465 4540 0
-2501 4540 0
-2357 2393 2429 -2465 2501 -4540 0
2357 4541 0
-2393 4541 0
2429 4541 0
-2465 4541 0
-2501 4541 0
-2357 2393 -2429 2465 2501 -4541 0
2357 -2393 -4533 -4534 -4535 -4536 -4537 -4538 -4539 -4540 -4541 0
2357 -2429 -4533 -4534 -4535 -4536 -4537 -4538 -4539 -4540 -4541 0
2357 -2465 -4533 -4534 -4535 -4536 -4537 -4538 -4539 -4540 -4541 0
2357 -2501 -4533 -4534 -4535 -4536 -4537 -4538 -4539 -4540 -4541 0
-2357 2393 -4533 -4534 -4535 -4536 -4537 -4538 -4539 -4540 -4541 0
2393 -2429 -4533 -4534 -4535 -4536 -4537 -4538 -4539 -4540 -4541 0
2393 -2465 -4533 -4534 -4535 -4536 -4537 -4538 -4539 -4540 -4541 0
2393 -2501 -4533 -4534 -4535 -4536 -4537 -4538 -4539 -4540 -4541 0
-2357 -2429 -4533 -4534 -4535 -4536 -4537 -4538 -4539 -4540 -4541 0
-2393 -2429 -4533 -4534 -4535 -4536 -4537 -4538 -4539 -4540 -4541 0
-2429 -4533 -4534 -4535 -4536 -4537 -4538 -4539 -4540 -4541 0
-2429 -2465 -4533 -4534 -4535 -4536 -4537 -4538 -4539 -4540 -4541 0
-2429 -2501 -4533 -4534 -4535 -4536 -4537 -4538 -4539 -4540 -4541 0
-2357 -2465 -4533 -4534 -4535 -4536 -4537 -4538 -4539 -4540 -4541 0
-2393 -2465 -4533 -4534 -4535 -4536 -4537 -4538 -4539 -4540 -4541 0
-2465 -4533 -4534 -4535 -4536 -4537 -4538 -4539 -4540 -4541 0
-2465 -2501 -4533 -4534 -4535 -4536 -4537 -4538 -4539 -4540 -4541 0
-2357 -2501 -4533 -4534 -4535 -4536 -4537 -4538 -4539 -4540 -4541 0
-2393 -2501 -4533 -4534 -4535 -4536 -4537 -4538 -4539 -4540 -4541 0
-2501 -4533 -4534 -4535 -4536 -4537 -4538 -4539 -4540 -4541 0
-2358 4542 0
-2394 4542 0
-2430 4542 0
2466 4542 0
2502 4542 0
2358 2394 2430 -2466 -2502 -4542 0
-2358 4543 0
-2394 4543 0
2430 4543 0
-2466 4543 0
2502 4543 0
2358 2394 -2430 2466 -2502 -4543 0
-2358 4544 0
-2394 4544 0
2430 4544 0
2466 4544 0
-2502 4544 0
2358 2394 -2430 -2466 2502 -4544 0
-2358 4545 0
2394 4545 0
-2430 4545 0
-2466 4545 0
2502 4545 0
2358 -2394 2430 2466 -2502 -4545 0
-2358 4546 0
2394 4546 0
-2430 4546 0
2466 4546 0
-2502 4546 0
2358 -2394 2430 -2466 2502 -4546 0
-2358 4547 0
2394 4547 0
2430 4547 0
-2466 4547 0
-2502 4547 0
2358 -2394 -2430 2466 2502 -4547 0
2358 4548 0
-2394 4548 0
-2430 4548 0
-2466 4548 0
2502 4548 0
-2358 2394 2430 2466 -2502 -4548 0
2358 4549 0
-2394 4549 0
-2430 4549 0
2466 4549 0
-2502 4549 0
-2358 2394 2430 -2466 2502 -4549 0
2358 4550 0
-2394 4550 0
2430 4550 0
-2466 4550 0
-2502 4550 0
-2358 2394 -2430 2466 2502 -4550 0
2358 -2394 -4542 -4543 -4544 -4545 -4546 -4547 -4548 -4549 -4550 0
2358 -2430 -4542 -4543 -4544 -4545 -4546 -4547 -4548 -4549 -4550 0
2358 -2466 -4542 -4543 -4544 -4545 -4546 -4547 -4548 -4549 -4550 0
2358 -2502 -4542 -4543 -4544 -4545 -4546 -4547 -4548 -4549 -4550 0
-2358 2394 -4542 -4543 -4544 -4545 -4546 -4547 -4548 -4549 -4550 0
2394 -2430 -4542 -4543 -4544 -4545 -4546 -4547 -4548 -4549 -4550 0
2394 -2466 -4542 -4543 -4544 -4545 -4546 -4547 -4548 -4549 -4550 0
2394 -2502 -4542 -4543 -4544 -4545 -4546 -4547 -4548 -4549 -4550 0
-2358 -2430 -4542 -4543 -4544 -4545 -4546 -4547 -4548 -4549 -4550 0
-2394 -2430 -4542 -4543 -4544 -4545 -4546 -4547 -4548 -4549 -4550 0
-2430 -4542 -4543 -4544 -4545 -4546 -4547 -4548 -4549 -4550 0
-2430 -2466 -4542 -4543 -4544 -4545 -4546 -4547 -4548 -4549 -4550 0
-2430 -2502 -4542 -4543 -4544 -4545 -4546 -4547 -4548 -4549 -4550 0
-2358 -2466 -4542 -4543 -4544 -4545 -4546 -4547 -4548 -4549 -4550 0
-2394 -2466 -4542 -4543 -4544 -4545 -4546 -4547 -4548 -4549 -4550 0
-2466 -4542 -4543 -4544 -4545 -4546 -4547 -4548 -4549 -4550 0
-2466 -2502 -4542 -4543 -4544 -4545 -4546 -4547 -4548 -4549 -4550 0
-2358 -2502 -4542 -4543 -4544 -4545 -4546 -4547 -4548 -4549 -4550 0
-2394 -2502 -4542 -4543 -4544 -4545 -4546 -4547 -4548 -4549 -4550 0
-2502 -4542 -4543 -4544 -4545 -4546 -4547 -4548 -4549 -4550 0
2403 -2367 0
2367 -2403 0
2369 2405 0
4551 -2369 0
2369 -4551 0
-2405 4552 0
-4551 4552 0
2405 4551 -4552 0
4553 -4552 0
4552 -4553 0
-2405 -4551 0
2370 2406 0
4554 -2370 0
2370 -4554 0
-2406 4555 0
-4554 4555 0
2406 4554 -4555 0
4556 -4555 0
4555 -4556 0
-2406 -4554 0
2511 -2475 0
2475 -2511 0
2477 2513 0
4557 -2477 0
2477 -4557 0
-2513 4558 0
-4557 4558 0
2513 4557 -4558 0
4559 -4558 0
4558 -4559 0
-2513 -4557 0
2514 -2478 0
2478 -2514 0
2558 2569 2580 2591 2602 2613 2623 2633 2644 2655 2666 2677 2688 2698 2708 2719 2730 2741 2752 2763 2773 0
4560 -2558 0
2558 -4560 0
-2569 4561 0
-4560 4561 0
2569 4560 -4561 0
4562 -4561 0
-4562 4561 0
-2569 -4560 0
-2580 4563 0
-4562 4563 0
2580 4562 -4563 0
4564 -4563 0
-4564 4563 0
-2580 -4562 0
-2591 4565 0
-4564 4565 0
2591 4564 -4565 0
4566 -4565 0
-4566 4565 0
-2591 -4564 0
-2602 4567 0
-4566 4567 0
2602 4566 -4567 0
4568 -4567 0
-4568 4567 0
-2602 -4566 0
-2613 4569 0
-4568 4569 0
2613 4568 -4569 0
4570 -4569 0
-4570 4569 0
-2613 -4568 0
-2623 4571 0
-4570 4571 0
2623 4570 -4571 0
4572 -4571 0
-4572 4571 0
-2623 -4570 0
-2633 4573 0
-4572 4573 0
2633 4572 -4573 0
4574 -4573 0
-4574 4573 0
-2633 -4572 0
-2644 4575 0
-4574 4575 0
2644 4574 -4575 0
4576 -4575 0
-4576 4575 0
-2644 -4574 0
-2655 4577 0
-4576 4577 0
2655 4576 -4577 0
4578 -4577 0
-4578 4577 0
-2655 -4576 0
-2666 4579 0
-4578 4579 0
2666 4578 -4579 0
4580 -4579 0
-4580 4579 0
-2666 -4578 0
-2677 4581 0
-4580 4581 0
2677 4580 -4581 0
4582 -4581 0
-4582 4581 0
-2677 -4580 0
-2688 4583 0
-4582 4583 0
2688 4582 -4583 0
4584 -4583 0
-4584 4583 0
-2688 -4582 0
-2698 4585 0
-4584 4585 0
2698 4584 -4585 0
4586 -4585 0
-4586 4585 0
-2698 -4584 0
-2708 4587 0
-4586 4587 0
2708 4586 -4587 0
4588 -4587 0
-4588 4587 0
-2708 -4586 0
-2719 4589 0
-4588 4589 0
2719 4588 -4589 0
4590 -4589 0
-4590 4589 0
-2719 -4588 0
-2730 4591 0
-4590 4591 0
2730 4590 -4591 0
4592 -4591 0
-4592 4591 0
-2730 -4590 0
-2741 4593 0
-4592 4593 0
2741 4592 -4593 0
4594 -4593 0
-4594 4593 0
-2741 -4592 0
-2752 4595 0
-4594 4595 0
2752 4594 -4595 0
4596 -4595 0
-4596 4595 0
-2752 -4594 0
-2763 4597 0
-4596 4597 0
2763 4596 -4597 0
4598 -4597 0
-4598 4597 0
-2763 -4596 0
-2773 4599 0
-4598 4599 0
2773 4598 -4599 0
4600 -4599 0
4599 -4600 0
-2773 -4598 0
-4601 0
-4602 0
-4603 0
-4604 0
-4605 0
-4606 0
-4607 0
-4608 0
-4609 0
-4610 0
-4611 0
-4612 0
-4613 0
-4614 0
-4615 0
-4616 0
-4617 0
-4618 0
-4619 0
-4620 0
-4621 0
2559 2571 2582 2593 2604 2615 2624 2634 2646 2657 2668 2679 2690 2699 2709 2721 2732 2743 2754 2765 2774 0
4622 -2559 0
2559 -4622 0
-2571 4623 0
-4622 4623 0
2571 4622 -4623 0
4624 -4623 0
-4624 4623 0
-2571 -4622 0
-2582 4625 0
-4624 4625 0
2582 4624 -4625 0
4626 -4625 0
-4626 4625 0
-2582 -4624 0
-2593 4627 0
-4626 4627 0
2593 4626 -4627 0
4628 -4627 0
-4628 4627 0
-2593 -4626 0
-2604 4629 0
-4628 4629 0
2604 4628 -4629 0
4630 -4629 0
-4630 4629 0
-2604 -4628 0
-2615 4631 0
-4630 4631 0
2615 4630 -4631 0
4632 -4631 0
-4632 4631 0
-2615 -4630 0
-2624 4633 0
-4632 4633 0
2624 4632 -4633 0
4634 -4633 0
-4634 4633 0
-2624 -4632 0
-2634 4635 0
-4634 4635 0
2634 4634 -4635 0
4636 -4635 0
-4636 4635 0
-2634 -4634 0
-2646 4637 0
-4636 4637 0
2646 4636 -4637 0
4638 -4637 0
-4638 4637 0
-2646 -4636 0
-2657 4639 0
-4638 4639 0
2657 4638 -4639 0
4640 -4639 0
-4640 4639 0
-2657 -4638 0
-2668 4641 0
-4640 4641 0
2668 4640 -4641 0
4642 -4641 0
-4642 4641 0
-2668 -4640 0
-2679 4643 0
-4642 4643 0
2679 4642 -4643 0
4644 -4643 0
-4644 4643 0
-2679 -4642 0
-2690 4645 0
-4644 4645 0
2690 4644 -4645 0
4646 -4645 0
-4646 4645 0
-2690 -4644 0
-2699 4647 0
-4646 4647 0
2699 4646 -4647 0
4648 -4647 0
-4648 4647 0
-2699 -4646 0
-2709 4649 0
-4648 4649 0
2709 4648 -4649 0
4650 -4649 0
-4650 4649 0
-2709 -4648 0
-2721 4651 0
-4650 4651 0
2721 4650 -4651 0
4652 -4651 0
-4652 4651 0
-2721 -4650 0
-2732 4653 0
-4652 4653 0
2732 4652 -4653 0
4654 -4653 0
-4654 4653 0
-2732 -4652 0
-2743 4655 0
-4654 4655 0
2743 4654 -4655 0
4656 -4655 0
-4656 4655 0
-2743 -4654 0
-2754 4657 0
-4656 4657 0
2754 4656 -4657 0
4658 -4657 0
-4658 4657 0
-2754 -4656 0
-2765 4659 0
-4658 4659 0
2765 4658 -4659 0
4660 -4659 0
-4660 4659 0
-2765 -4658 0
-2774 4661 0
-4660 4661 0
2774 4660 -4661 0
4662 -4661 0
4661 -4662 0
-2774 -4660 0
-4663 0
-4664 0
-4665 0
-4666 0
-4667 0
-4668 0
-4669 0
-4670 0
-4671 0
-4672 0
-4673 0
-4674 0
-4675 0
-4676 0
4677 -63 0
63 -4677 0
-4678 0
-63 -75 -4679 0
-63 -4679 0
75 -4679 0
63 75 -4679 0
63 -75 4679 0
63 -4680 0
63 75 -4680 0
-63 -75 -4680 0
-75 -4680 0
-63 75 4680 0
-75 -87 -4681 0
-75 -4681 0
87 -4681 0
75 87 -4681 0
75 -87 4681 0
75 -4682 0
75 87 -4682 0
-75 -87 -4682 0
-87 -4682 0
-75 87 4682 0
-87 -99 -4683 0
-87 -4683 0
99 -4683 0
87 99 -4683 0
87 -99 4683 0
87 -4684 0
87 99 -4684 0
-87 -99 -4684 0
-99 -4684 0
-87 99 4684 0
-99 -111 -4685 0
-99 -4685 0
111 -4685 0
99 111 -4685 0
99 -111 4685 0
99 -4686 0
99 111 -4686 0
-99 -111 -4686 0
-111 -4686 0
-99 111 4686 0
-111 -120 -4687 0
-111 -4687 0
120 -4687 0
111 120 -4687 0
111 -120 4687 0
111 -4688 0
111 120 -4688 0
-111 -120 -4688 0
-120 -4688 0
-111 120 4688 0
-4689 0
4690 -120 0
120 -4690 0
4691 -129 0
129 -4691 0
-4692 0
-129 -141 -4693 0
-129 -4693 0
141 -4693 0
129 141 -4693 0
129 -141 4693 0
129 -4694 0
129 141 -4694 0
-129 -141 -4694 0
-141 -4694 0
-129 141 4694 0
-141 -153 -4695 0
-141 -4695 0
153 -4695 0
141 153 -4695 0
141 -153 4695 0
141 -4696 0
141 153 -4696 0
-141 -153 -4696 0
-153 -4696 0
-141 153 4696 0
-153 -165 -4697 0
-153 -4697 0
165 -4697 0
153 165 -4697 0
153 -165 4697 0
153 -4698 0
153 165 -4698 0
-153 -165 -4698 0
-165 -4698 0
-153 165 4698 0
-165 -177 -4699 0
-165 -4699 0
177 -4699 0
165 177 -4699 0
165 -177 4699 0
165 -4700 0
165 177 -4700 0
-165 -177 -4700 0
-177 -4700 0
-165 177 4700 0
-177 -186 -4701 0
-177 -4701 0
186 -4701 0
177 186 -4701 0
177 -186 4701 0
177 -4702 0
177 186 -4702 0
-177 -186 -4702 0
-186 -4702 0
-177 186 4702 0
-4703 0
4704 -186 0
186 -4704 0
4705 -195 0
195 -4705 0
-4706 0
-195 -207 -4707 0
-195 -4707 0
207 -4707 0
195 207 -4707 0
195 -207 4707 0
195 -4708 0
195 207 -4708 0
-195 -207 -4708 0
-207 -4708 0
-195 207 4708 0
-207 -219 -4709 0
-207 -4709 0
219 -4709 0
207 219 -4709 0
207 -219 4709 0
207 -4710 0
207 219 -4710 0
-207 -219 -4710 0
-219 -4710 0
-207 219 4710 0
-219 -231 -4711 0
-219 -4711 0
231 -4711 0
219 231 -4711 0
219 -231 4711 0
219 -4712 0
219 231 -4712 0
-219 -231 -4712 0
-231 -4712 0
-219 231 4712 0
-231 -243 -4713 0
-231 -4713 0
243 -4713 0
231 243 -4713 0
231 -243 4713 0
231 -4714 0
231 243 -4714 0
-231 -243 -4714 0
-243 -4714 0
-231 243 4714 0
-243 -252 -4715 0
-243 -4715 0
252 -4715 0
243 252 -4715 0
243 -252 4715 0
243 -4716 0
243 252 -4716 0
-243 -252 -4716 0
-252 -4716 0
-243 252 4716 0
-4717 0
4718 -252 0
252 -4718 0
4719 -261 0
261 -4719 0
-4720 0
-261 -273 -4721 0
-261 -4721 0
273 -4721 0
261 273 -4721 0
261 -273 4721 0
261 -4722 0
261 273 -4722 0
-261 -273 -4722 0
-273 -4722 0
-261 273 4722 0
-273 -285 -4723 0
-273 -4723 0
285 -4723 0
273 285 -4723 0
273 -285 4723 0
273 -4724 0
273 285 -4724 0
-273 -285 -4724 0
-285 -4724 0
-273 285 4724 0
-285 -297 -4725 0
-285 -4725 0
297 -4725 0
285 297 -4725 0
285 -297 4725 0
285 -4726 0
285 297 -4726 0
-285 -297 -4726 0
-297 -4726 0
-285 297 4726 0
-297 -309 -4727 0
-297 -4727 0
309 -4727 0
297 309 -4727 0
297 -309 4727 0
297 -4728 0
297 309 -4728 0
-297 -309 -4728 0
-309 -4728 0
-297 309 4728 0
-309 -318 -4729 0
-309 -4729 0
318 -4729 0
309 318 -4729 0
309 -318 4729 0
309 -4730 0
309 318 -4730 0
-309 -318 -4730 0
-318 -4730 0
-309 318 4730 0
-4731 0
4732 -318 0
318 -4732 0
4733 -327 0
327 -4733 0
-4734 0
-327 -339 -4735 0
-327 -4735 0
339 -4735 0
327 339 -4735 0
327 -339 4735 0
327 -4736 0
327 339 -4736 0
-327 -339 -4736 0
-339 -4736 0
-327 339 4736 0
-339 -351 -4737 0
-339 -4737 0
351 -4737 0
339 351 -4737 0
339 -351 4737 0
339 -4738 0
339 351 -4738 0
-339 -351 -4738 0
-351 -4738 0
-339 351 4738 0
-351 -363 -4739 0
-351 -4739 0
363 -4739 0
351 363 -4739 0
351 -363 4739 0
351 -4740 0
351 363 -4740 0
-351 -363 -4740 0
-363 -4740 0
-351 363 4740 0
-363 -375 -4741 0
-363 -4741 0
375 -4741 0
363 375 -4741 0
363 -375 4741 0
363 -4742 0
363 375 -4742 0
-363 -375 -4742 0
-375 -4742 0
-363 375 4742 0
-375 -384 -4743 0
-375 -4743 0
384 -4743 0
375 384 -4743 0
375 -384 4743 0
375 -4744 0
375 384 -4744 0
-375 -384 -4744 0
-384 -4744 0
-375 384 4744 0
-4745 0
4746 -384 0
384 -4746 0
-4747 0
-4748 0
-4749 0
-4750 0
-4751 0
-4752 0
-4753 0
-4754 0
-4755 0
-4756 0
-4757 0
-4758 0
-4759 0
-4760 0
4761 -453 0
453 -4761 0
-4762 0
-453 -465 -4763 0
-453 -4763 0
465 -4763 0
453 465 -4763 0
453 -465 4763 0
453 -4764 0
453 465 -4764 0
-453 -465 -4764 0
-465 -4764 0
-453 465 4764 0
-465 -477 -4765 0
-465 -4765 0
477 -4765 0
465 477 -4765 0
465 -477 4765 0
465 -4766 0
465 477 -4766 0
-465 -477 -4766 0
-477 -4766 0
-465 477 4766 0
-477 -489 -4767 0
-477 -4767 0
489 -4767 0
477 489 -4767 0
477 -489 4767 0
477 -4768 0
477 489 -4768 0
-477 -489 -4768 0
-489 -4768 0
-477 489 4768 0
-489 -501 -4769 0
-489 -4769 0
501 -4769 0
489 501 -4769 0
489 -501 4769 0
489 -4770 0
489 501 -4770 0
-489 -501 -4770 0
-501 -4770 0
-489 501 4770 0
-501 -513 -4771 0
-501 -4771 0
513 -4771 0
501 513 -4771 0
501 -513 4771 0
501 -4772 0
501 513 -4772 0
-501 -513 -4772 0
-513 -4772 0
-501 513 4772 0
-513 -525 -4773 0
-513 -4773 0
525 -4773 0
513 525 -4773 0
513 -525 4773 0
513 -4774 0
513 525 -4774 0
-513 -525 -4774 0
-525 -4774 0
-513 525 4774 0
-525 -537 -4775 0
-525 -4775 0
537 -4775 0
525 537 -4775 0
525 -537 4775 0
525 -4776 0
525 537 -4776 0
-525 -537 -4776 0
-537 -4776 0
-525 537 4776 0
-537 -549 -4777 0
-537 -4777 0
549 -4777 0
537 549 -4777 0
537 -549 4777 0
537 -4778 0
537 549 -4778 0
-537 -549 -4778 0
-549 -4778 0
-537 549 4778 0
-549 -561 -4779 0
-549 -4779 0
561 -4779 0
549 561 -4779 0
549 -561 4779 0
549 -4780 0
549 561 -4780 0
-549 -561 -4780 0
-561 -4780 0
-549 561 4780 0
-561 -573 -4781 0
-561 -4781 0
573 -4781 0
561 573 -4781 0
561 -573 4781 0
561 -4782 0
561 573 -4782 0
-561 -573 -4782 0
-573 -4782 0
-561 573 4782 0
-573 -585 -4783 0
-573 -4783 0
585 -4783 0
573 585 -4783 0
573 -585 4783 0
573 -4784 0
573 585 -4784 0
-573 -585 -4784 0
-585 -4784 0
-573 585 4784 0
-585 -597 -4785 0
-585 -4785 0
597 -4785 0
585 597 -4785 0
585 -597 4785 0
585 -4786 0
585 597 -4786 0
-585 -597 -4786 0
-597 -4786 0
-585 597 4786 0
-597 -609 -4787 0
-597 -4787 0
609 -4787 0
597 609 -4787 0
597 -609 4787 0
597 -4788 0
597 609 -4788 0
-597 -609 -4788 0
-609 -4788 0
-597 609 4788 0
-609 -621 -4789 0
-609 -4789 0
621 -4789 0
609 621 -4789 0
609 -621 4789 0
609 -4790 0
609 621 -4790 0
-609 -621 -4790 0
-621 -4790 0
-609 621 4790 0
-621 -633 -4791 0
-621 -4791 0
633 -4791 0
621 633 -4791 0
621 -633 4791 0
621 -4792 0
621 633 -4792 0
-621 -633 -4792 0
-633 -4792 0
-621 633 4792 0
-633 -645 -4793 0
-633 -4793 0
645 -4793 0
633 645 -4793 0
633 -645 4793 0
633 -4794 0
633 645 -4794 0
-633 -645 -4794 0
-645 -4794 0
-633 645 4794 0
-645 -657 -4795 0
-645 -4795 0
657 -4795 0
645 657 -4795 0
645 -657 4795 0
645 -4796 0
645 657 -4796 0
-645 -657 -4796 0
-657 -4796 0
-645 657 4796 0
-657 -669 -4797 0
-657 -4797 0
669 -4797 0
657 669 -4797 0
657 -669 4797 0
657 -4798 0
657 669 -4798 0
-657 -669 -4798 0
-669 -4798 0
-657 669 4798 0
-669 -681 -4799 0
-669 -4799 0
681 -4799 0
669 681 -4799 0
669 -681 4799 0
669 -4800 0
669 681 -4800 0
-669 -681 -4800 0
-681 -4800 0
-669 681 4800 0
-681 -693 -4801 0
-681 -4801 0
693 -4801 0
681 693 -4801 0
681 -693 4801 0
681 -4802 0
681 693 -4802 0
-681 -693 -4802 0
-693 -4802 0
-681 693 4802 0
-693 -705 -4803 0
-693 -4803 0
705 -4803 0
693 705 -4803 0
693 -705 4803 0
693 -4804 0
693 705 -4804 0
-693 -705 -4804 0
-705 -4804 0
-693 705 4804 0
-705 -717 -4805 0
-705 -4805 0
717 -4805 0
705 717 -4805 0
705 -717 4805 0
705 -4806 0
705 717 -4806 0
-705 -717 -4806 0
-717 -4806 0
-705 717 4806 0
-717 -729 -4807 0
-717 -4807 0
729 -4807 0
717 729 -4807 0
717 -729 4807 0
717 -4808 0
717 729 -4808 0
-717 -729 -4808 0
-729 -4808 0
-717 729 4808 0
-729 -741 -4809 0
-729 -4809 0
741 -4809 0
729 741 -4809 0
729 -741 4809 0
729 -4810 0
729 741 -4810 0
-729 -741 -4810 0
-741 -4810 0
-729 741 4810 0
-741 -750 -4811 0
-741 -4811 0
750 -4811 0
741 750 -4811 0
741 -750 4811 0
741 -4812 0
741 750 -4812 0
-741 -750 -4812 0
-750 -4812 0
-741 750 4812 0
-4813 0
4814 -750 0
750 -4814 0
4815 -759 0
759 -4815 0
-4816 0
-759 -771 -4817 0
-759 -4817 0
771 -4817 0
759 771 -4817 0
759 -771 4817 0
759 -4818 0
759 771 -4818 0
-759 -771 -4818 0
-771 -4818 0
-759 771 4818 0
-771 -783 -4819 0
-771 -4819 0
783 -4819 0
771 783 -4819 0
771 -783 4819 0
771 -4820 0
771 783 -4820 0
-771 -783 -4820 0
-783 -4820 0
-771 783 4820 0
-783 -795 -4821 0
-783 -4821 0
795 -4821 0
783 795 -4821 0
783 -795 4821 0
783 -4822 0
783 795 -4822 0
-783 -795 -4822 0
-795 -4822 0
-783 795 4822 0
-795 -807 -4823 0
-795 -4823 0
807 -4823 0
795 807 -4823 0
795 -807 4823 0
795 -4824 0
795 807 -4824 0
-795 -807 -4824 0
-807 -4824 0
-795 807 4824 0
-807 -819 -4825 0
-807 -4825 0
819 -4825 0
807 819 -4825 0
807 -819 4825 0
807 -4826 0
807 819 -4826 0
-807 -819 -4826 0
-819 -4826 0
-807 819 4826 0
-819 -831 -4827 0
-819 -4827 0
831 -4827 0
819 831 -4827 0
819 -831 4827 0
819 -4828 0
819 831 -4828 0
-819 -831 -4828 0
-831 -4828 0
-819 831 4828 0
-831 -843 -4829 0
-831 -4829 0
843 -4829 0
831 843 -4829 0
831 -843 4829 0
831 -4830 0
831 843 -4830 0
-831 -843 -4830 0
-843 -4830 0
-831 843 4830 0
-843 -855 -4831 0
-843 -4831 0
855 -4831 0
843 855 -4831 0
843 -855 4831 0
843 -4832 0
843 855 -4832 0
-843 -855 -4832 0
-855 -4832 0
-843 855 4832 0
-855 -867 -4833 0
-855 -4833 0
867 -4833 0
855 867 -4833 0
855 -867 4833 0
855 -4834 0
855 867 -4834 0
-855 -867 -4834 0
-867 -4834 0
-855 867 4834 0
-867 -879 -4835 0
-867 -4835 0
879 -4835 0
867 879 -4835 0
867 -879 4835 0
867 -4836 0
867 879 -4836 0
-867 -879 -4836 0
-879 -4836 0
-867 879 4836 0
-879 -891 -4837 0
-879 -4837 0
891 -4837 0
879 891 -4837 0
879 -891 4837 0
879 -4838 0
879 891 -4838 0
-879 -891 -4838 0
-891 -4838 0
-879 891 4838 0
-891 -903 -4839 0
-891 -4839 0
903 -4839 0
891 903 -4839 0
891 -903 4839 0
891 -4840 0
891 903 -4840 0
-891 -903 -4840 0
-903 -4840 0
-891 903 4840 0
-903 -915 -4841 0
-903 -4841 0
915 -4841 0
903 915 -4841 0
903 -915 4841 0
903 -4842 0
903 915 -4842 0
-903 -915 -4842 0
-915 -4842 0
-903 915 4842 0
-915 -927 -4843 0
-915 -4843 0
927 -4843 0
915 927 -4843 0
915 -927 4843 0
915 -4844 0
915 927 -4844 0
-915 -927 -4844 0
-927 -4844 0
-915 927 4844 0
-927 -939 -4845 0
-927 -4845 0
939 -4845 0
927 939 -4845 0
927 -939 4845 0
927 -4846 0
927 939 -4846 0
-927 -939 -4846 0
-939 -4846 0
-927 939 4846 0
-939 -951 -4847 0
-939 -4847 0
951 -4847 0
939 951 -4847 0
939 -951 4847 0
939 -4848 0
939 951 -4848 0
-939 -951 -4848 0
-951 -4848 0
-939 951 4848 0
-951 -963 -4849 0
-951 -4849 0
963 -4849 0
951 963 -4849 0
951 -963 4849 0
951 -4850 0
951 963 -4850 0
-951 -963 -4850 0
-963 -4850 0
-951 963 4850 0
-963 -975 -4851 0
-963 -4851 0
975 -4851 0
963 975 -4851 0
963 -975 4851 0
963 -4852 0
963 975 -4852 0
-963 -975 -4852 0
-975 -4852 0
-963 975 4852 0
-975 -987 -4853 0
-975 -4853 0
987 -4853 0
975 987 -4853 0
975 -987 4853 0
975 -4854 0
975 987 -4854 0
-975 -987 -4854 0
-987 -4854 0
-975 987 4854 0
-987 -999 -4855 0
-987 -4855 0
999 -4855 0
987 999 -4855 0
987 -999 4855 0
987 -4856 0
987 999 -4856 0
-987 -999 -4856 0
-999 -4856 0
-987 999 4856 0
-999 -1011 -4857 0
-999 -4857 0
1011 -4857 0
999 1011 -4857 0
999 -1011 4857 0
999 -4858 0
999 1011 -4858 0
-999 -1011 -4858 0
-1011 -4858 0
-999 1011 4858 0
-1011 -1023 -4859 0
-1011 -4859 0
1023 -4859 0
1011 1023 -4859 0
1011 -1023 4859 0
1011 -4860 0
1011 1023 -4860 0
-1011 -1023 -4860 0
-1023 -4860 0
-1011 1023 4860 0
-1023 -1035 -4861 0
-1023 -4861 0
1035 -4861 0
1023 1035 -4861 0
1023 -1035 4861 0
1023 -4862 0
1023 1035 -4862 0
-1023 -1035 -4862 0
-1035 -4862 0
-1023 1035 4862 0
-1035 -1047 -4863 0
-1035 -4863 0
1047 -4863 0
1035 1047 -4863 0
1035 -1047 4863 0
1035 -4864 0
1035 1047 -4864 0
-1035 -1047 -4864 0
-1047 -4864 0
-1035 1047 4864 0
-1047 -1056 -4865 0
-1047 -4865 0
1056 -4865 0
1047 1056 -4865 0
1047 -1056 4865 0
1047 -4866 0
1047 1056 -4866 0
-1047 -1056 -4866 0
-1056 -4866 0
-1047 1056 4866 0
-4867 0
4868 -1056 0
1056 -4868 0
4869 -1065 0
1065 -4869 0
-4870 0
-1065 -1077 -4871 0
-1065 -4871 0
1077 -4871 0
1065 1077 -4871 0
1065 -1077 4871 0
1065 -4872 0
1065 1077 -4872 0
-1065 -1077 -4872 0
-1077 -4872 0
-1065 1077 4872 0
-1077 -1089 -4873 0
-1077 -4873 0
1089 -4873 0
1077 1089 -4873 0
1077 -1089 4873 0
1077 -4874 0
1077 1089 -4874 0
-1077 -1089 -4874 0
-1089 -4874 0
-1077 1089 4874 0
-1089 -1101 -4875 0
-1089 -4875 0
1101 -4875 0
1089 1101 -4875 0
1089 -1101 4875 0
1089 -4876 0
1089 1101 -4876 0
-1089 -1101 -4876 0
-1101 -4876 0
-1089 1101 4876 0
-1101 -1113 -4877 0
-1101 -4877 0
1113 -4877 0
1101 1113 -4877 0
1101 -1113 4877 0
1101 -4878 0
1101 1113 -4878 0
-1101 -1113 -4878 0
-1113 -4878 0
-1101 1113 4878 0
-1113 -1125 -4879 0
-1113 -4879 0
1125 -4879 0
1113 1125 -4879 0
1113 -1125 4879 0
1113 -4880 0
1113 1125 -4880 0
-1113 -1125 -4880 0
-1125 -4880 0
-1113 1125 4880 0
-1125 -1137 -4881 0
-1125 -4881 0
1137 -4881 0
1125 1137 -4881 0
1125 -1137 4881 0
1125 -4882 0
1125 1137 -4882 0
-1125 -1137 -4882 0
-1137 -4882 0
-1125 1137 4882 0
-1137 -1149 -4883 0
-1137 -4883 0
1149 -4883 0
1137 1149 -4883 0
1137 -1149 4883 0
1137 -4884 0
1137 1149 -4884 0
-1137 -1149 -4884 0
-1149 -4884 0
-1137 1149 4884 0
-1149 -1161 -4885 0
-1149 -4885 0
1161 -4885 0
1149 1161 -4885 0
1149 -1161 4885 0
1149 -4886 0
1149 1161 -4886 0
-1149 -1161 -4886 0
-1161 -4886 0
-1149 1161 4886 0
-1161 -1173 -4887 0
-1161 -4887 0
1173 -4887 0
1161 1173 -4887 0
1161 -1173 4887 0
1161 -4888 0
1161 1173 -4888 0
-1161 -1173 -4888 0
-1173 -4888 0
-1161 1173 4888 0
-1173 -1185 -4889 0
-1173 -4889 0
1185 -4889 0
1173 1185 -4889 0
1173 -1185 4889 0
1173 -4890 0
1173 1185 -4890 0
-1173 -1185 -4890 0
-1185 -4890 0
-1173 1185 4890 0
-1185 -1197 -4891 0
-1185 -4891 0
1197 -4891 0
1185 1197 -4891 0
1185 -1197 4891 0
1185 -4892 0
1185 1197 -4892 0
-1185 -1197 -4892 0
-1197 -4892 0
-1185 1197 4892 0
-1197 -1209 -4893 0
-1197 -4893 0
1209 -4893 0
1197 1209 -4893 0
1197 -1209 4893 0
1197 -4894 0
1197 1209 -4894 0
-1197 -1209 -4894 0
-1209 -4894 0
-1197 1209 4894 0
-1209 -1221 -4895 0
-1209 -4895 0
1221 -4895 0
1209 1221 -4895 0
1209 -1221 4895 0
1209 -4896 0
1209 1221 -4896 0
-1209 -1221 -4896 0
-1221 -4896 0
-1209 1221 4896 0
-1221 -1233 -4897 0
-1221 -4897 0
1233 -4897 0
1221 1233 -4897 0
1221 -1233 4897 0
1221 -4898 0
1221 1233 -4898 0
-1221 -1233 -4898 0
-1233 -4898 0
-1221 1233 4898 0
-1233 -1245 -4899 0
-1233 -4899 0
1245 -4899 0
1233 1245 -4899 0
1233 -1245 4899 0
1233 -4900 0
1233 1245 -4900 0
-1233 -1245 -4900 0
-1245 -4900 0
-1233 1245 4900 0
-1245 -1257 -4901 0
-1245 -4901 0
1257 -4901 0
1245 1257 -4901 0
1245 -1257 4901 0
1245 -4902 0
1245 1257 -4902 0
-1245 -1257 -4902 0
-1257 -4902 0
-1245 1257 4902 0
-1257 -1269 -4903 0
-1257 -4903 0
1269 -4903 0
1257 1269 -4903 0
1257 -1269 4903 0
1257 -4904 0
1257 1269 -4904 0
-1257 -1269 -4904 0
-1269 -4904 0
-1257 1269 4904 0
-1269 -1281 -4905 0
-1269 -4905 0
1281 -4905 0
1269 1281 -4905 0
1269 -1281 4905 0
1269 -4906 0
1269 1281 -4906 0
-1269 -1281 -4906 0
-1281 -4906 0
-1269 1281 4906 0
-1281 -1293 -4907 0
-1281 -4907 0
1293 -4907 0
1281 1293 -4907 0
1281 -1293 4907 0
1281 -4908 0
1281 1293 -4908 0
-1281 -1293 -4908 0
-1293 -4908 0
-1281 1293 4908 0
-1293 -1305 -4909 0
-1293 -4909 0
1305 -4909 0
1293 1305 -4909 0
1293 -1305 4909 0
1293 -4910 0
1293 1305 -4910 0
-1293 -1305 -4910 0
-1305 -4910 0
-1293 1305 4910 0
-1305 -1317 -4911 0
-1305 -4911 0
1317 -4911 0
1305 1317 -4911 0
1305 -1317 4911 0
1305 -4912 0
1305 1317 -4912 0
-1305 -1317 -4912 0
-1317 -4912 0
-1305 1317 4912 0
-1317 -1329 -4913 0
-1317 -4913 0
1329 -4913 0
1317 1329 -4913 0
1317 -1329 4913 0
1317 -4914 0
1317 1329 -4914 0
-1317 -1329 -4914 0
-1329 -4914 0
-1317 1329 4914 0
-1329 -1341 -4915 0
-1329 -4915 0
1341 -4915 0
1329 1341 -4915 0
1329 -1341 4915 0
1329 -4916 0
1329 1341 -4916 0
-1329 -1341 -4916 0
-1341 -4916 0
-1329 1341 4916 0
-1341 -1353 -4917 0
-1341 -4917 0
1353 -4917 0
1341 1353 -4917 0
1341 -1353 4917 0
1341 -4918 0
1341 1353 -4918 0
-1341 -1353 -4918 0
-1353 -4918 0
-1341 1353 4918 0
-1353 -1362 -4919 0
-1353 -4919 0
1362 -4919 0
1353 1362 -4919 0
1353 -1362 4919 0
1353 -4920 0
1353 1362 -4920 0
-1353 -1362 -4920 0
-1362 -4920 0
-1353 1362 4920 0
-4921 0
4922 -1362 0
1362 -4922 0
-4923 0
-4924 0
-4925 0
-4926 0
-4927 0
-4928 0
-4929 0
-4930 0
-4931 0
-4932 0
-4933 0
-4934 0
-4935 0
-4936 0
4937 -1431 0
1431 -4937 0
-4938 0
-1431 -1443 -4939 0
-1431 -4939 0
1443 -4939 0
1431 1443 -4939 0
1431 -1443 4939 0
1431 -4940 0
1431 1443 -4940 0
-1431 -1443 -4940 0
-1443 -4940 0
-1431 1443 4940 0
-1443 -1455 -4941 0
-1443 -4941 0
1455 -4941 0
1443 1455 -4941 0
1443 -1455 4941 0
1443 -4942 0
1443 1455 -4942 0
-1443 -1455 -4942 0
-1455 -4942 0
-1443 1455 4942 0
-1455 -1467 -4943 0
-1455 -4943 0
1467 -4943 0
1455 1467 -4943 0
1455 -1467 4943 0
1455 -4944 0
1455 1467 -4944 0
-1455 -1467 -4944 0
-1467 -4944 0
-1455 1467 4944 0
-1467 -1479 -4945 0
-1467 -4945 0
1479 -4945 0
1467 1479 -4945 0
1467 -1479 4945 0
1467 -4946 0
1467 1479 -4946 0
-1467 -1479 -4946 0
-1479 -4946 0
-1467 1479 4946 0
-1479 -1488 -4947 0
-1479 -4947 0
1488 -4947 0
1479 1488 -4947 0
1479 -1488 4947 0
1479 -4948 0
1479 1488 -4948 0
-1479 -1488 -4948 0
-1488 -4948 0
-1479 1488 4948 0
-4949 0
4950 -1488 0
1488 -4950 0
4951 -1497 0
1497 -4951 0
-4952 0
-1497 -1509 -4953 0
-1497 -4953 0
1509 -4953 0
1497 1509 -4953 0
1497 -1509 4953 0
1497 -4954 0
1497 1509 -4954 0
-1497 -1509 -4954 0
-1509 -4954 0
-1497 1509 4954 0
-1509 -1521 -4955 0
-1509 -4955 0
1521 -4955 0
1509 1521 -4955 0
1509 -1521 4955 0
1509 -4956 0
1509 1521 -4956 0
-1509 -1521 -4956 0
-1521 -4956 0
-1509 1521 4956 0
-1521 -1533 -4957 0
-1521 -4957 0
1533 -4957 0
1521 1533 -4957 0
1521 -1533 4957 0
1521 -4958 0
1521 1533 -4958 0
-1521 -1533 -4958 0
-1533 -4958 0
-1521 1533 4958 0
-1533 -1545 -4959 0
-1533 -4959 0
1545 -4959 0
1533 1545 -4959 0
1533 -1545 4959 0
1533 -4960 0
1533 1545 -4960 0
-1533 -1545 -4960 0
-1545 -4960 0
-1533 1545 4960 0
-1545 -1554 -4961 0
-1545 -4961 0
1554 -4961 0
1545 1554 -4961 0
1545 -1554 4961 0
1545 -4962 0
1545 1554 -4962 0
-1545 -1554 -4962 0
-1554 -4962 0
-1545 1554 4962 0
-4963 0
4964 -1554 0
1554 -4964 0
4965 -1563 0
1563 -4965 0
-4966 0
-1563 -1575 -4967 0
-1563 -4967 0
1575 -4967 0
1563 1575 -4967 0
1563 -1575 4967 0
1563 -4968 0
1563 1575 -4968 0
-1563 -1575 -4968 0
-1575 -4968 0
-1563 1575 4968 0
-1575 -1587 -4969 0
-1575 -4969 0
1587 -4969 0
1575 1587 -4969 0
1575 -1587 4969 0
1575 -4970 0
1575 1587 -4970 0
-1575 -1587 -4970 0
-1587 -4970 0
-1575 1587 4970 0
-1587 -1599 -4971 0
-1587 -4971 0
1599 -4971 0
1587 1599 -4971 0
1587 -1599 4971 0
1587 -4972 0
1587 1599 -4972 0
-1587 -1599 -4972 0
-1599 -4972 0
-1587 1599 4972 0
-1599 -1611 -4973 0
-1599 -4973 0
1611 -4973 0
1599 1611 -4973 0
1599 -1611 4973 0
1599 -4974 0
1599 1611 -4974 0
-1599 -1611 -4974 0
-1611 -4974 0
-1599 1611 4974 0
-1611 -1620 -4975 0
-1611 -4975 0
1620 -4975 0
1611 1620 -4975 0
1611 -1620 4975 0
1611 -4976 0
1611 1620 -4976 0
-1611 -1620 -4976 0
-1620 -4976 0
-1611 1620 4976 0
-4977 0
4978 -1620 0
1620 -4978 0
4979 -1629 0
1629 -4979 0
-4980 0
-1629 -1641 -4981 0
-1629 -4981 0
1641 -4981 0
1629 1641 -4981 0
1629 -1641 4981 0
1629 -4982 0
1629 1641 -4982 0
-1629 -1641 -4982 0
-1641 -4982 0
-1629 1641 4982 0
-1641 -1653 -4983 0
-1641 -4983 0
1653 -4983 0
1641 1653 -4983 0
1641 -1653 4983 0
1641 -4984 0
1641 1653 -4984 0
-1641 -1653 -4984 0
-1653 -4984 0
-1641 1653 4984 0
-1653 -1665 -4985 0
-1653 -4985 0
1665 -4985 0
1653 1665 -4985 0
1653 -1665 4985 0
1653 -4986 0
1653 1665 -4986 0
-1653 -1665 -4986 0
-1665 -4986 0
-1653 1665 4986 0
-1665 -1677 -4987 0
-1665 -4987 0
1677 -4987 0
1665 1677 -4987 0
1665 -1677 4987 0
1665 -4988 0
1665 1677 -4988 0
-1665 -1677 -4988 0
-1677 -4988 0
-1665 1677 4988 0
-1677 -1686 -4989 0
-1677 -4989 0
1686 -4989 0
1677 1686 -4989 0
1677 -1686 4989 0
1677 -4990 0
1677 1686 -4990 0
-1677 -1686 -4990 0
-1686 -4990 0
-1677 1686 4990 0
-4991 0
4992 -1686 0
1686 -4992 0
4993 -1695 0
1695 -4993 0
-4994 0
-1695 -1707 -4995 0
-1695 -4995 0
1707 -4995 0
1695 1707 -4995 0
1695 -1707 4995 0
1695 -4996 0
1695 1707 -4996 0
-1695 -1707 -4996 0
-1707 -4996 0
-1695 1707 4996 0
-1707 -1719 -4997 0
-1707 -4997 0
1719 -4997 0
1707 1719 -4997 0
1707 -1719 4997 0
1707 -4998 0
1707 1719 -4998 0
-1707 -1719 -4998 0
-1719 -4998 0
-1707 1719 4998 0
-1719 -1731 -4999 0
-1719 -4999 0
1731 -4999 0
1719 1731 -4999 0
1719 -1731 4999 0
1719 -5000 0
1719 1731 -5000 0
-1719 -1731 -5000 0
-1731 -5000 0
-1719 1731 5000 0
-1731 -1743 -5001 0
-1731 -5001 0
1743 -5001 0
1731 1743 -5001 0
1731 -1743 5001 0
1731 -5002 0
1731 1743 -5002 0
-1731 -1743 -5002 0
-1743 -5002 0
-1731 1743 5002 0
-1743 -1752 -5003 0
-1743 -5003 0
1752 -5003 0
1743 1752 -5003 0
1743 -1752 5003 0
1743 -5004 0
1743 1752 -5004 0
-1743 -1752 -5004 0
-1752 -5004 0
-1743 1752 5004 0
-5005 0
5006 -1752 0
1752 -5006 0
-5007 0
-5008 0
-5009 0
-5010 0
-5011 0
-5012 0
-5013 0
-5014 0
-5015 0
-5016 0
-5017 0
-5018 0
-5019 0
-5020 0
87 -2359 0
99 -2359 0
111 -2371 0
120 -2371 0
153 -2395 0
165 -2395 0
177 -2407 0
186 -2407 0
219 -2431 0
231 -2431 0
285 -2467 0
297 -2467 0
309 -2479 0
318 -2479 0
351 -2503 0
363 -2503 0
375 -2515 0
384 -2515 0
63 -2103 0
75 -2103 0
501 -2103 0
513 -2103 0
111 -2126 0
120 -2126 0
1113 -2126 0
1125 -2126 0
129 -2138 0
141 -2138 0
549 -2138 0
561 -2138 0
177 -2161 0
186 -2161 0
1161 -2161 0
1173 -2161 0
195 -2173 0
207 -2173 0
597 -2173 0
609 -2173 0
243 -2196 0
252 -2196 0
1209 -2196 0
1221 -2196 0
261 -2208 0
273 -2208 0
645 -2208 0
657 -2208 0
309 -2231 0
318 -2231 0
1257 -2231 0
1269 -2231 0
327 -2243 0
339 -2243 0
693 -2243 0
705 -2243 0
375 -2266 0
384 -2266 0
1305 -2266 0
1317 -2266 0
501 -1857 0
513 -1857 0
1431 -1857 0
1443 -1857 0
807 -1869 0
819 -1869 0
1455 -1869 0
1467 -1869 0
1113 -1881 0
1125 -1881 0
1479 -1881 0
1488 -1881 0
549 -1893 0
561 -1893 0
1497 -1893 0
1509 -1893 0
855 -1905 0
867 -1905 0
1521 -1905 0
1533 -1905 0
1161 -1917 0
1173 -1917 0
1545 -1917 0
1554 -1917 0
597 -1929 0
609 -1929 0
1563 -1929 0
1575 -1929 0
903 -1941 0
915 -1941 0
1587 -1941 0
1599 -1941 0
1209 -1953 0
1221 -1953 0
1611 -1953 0
1620 -1953 0
645 -1965 0
657 -1965 0
1629 -1965 0
1641 -1965 0
951 -1977 0
963 -1977 0
1653 -1977 0
1665 -1977 0
1257 -1989 0
1269 -1989 0
1677 -1989 0
1686 -1989 0
693 -2001 0
705 -2001 0
1695 -2001 0
1707 -2001 0
999 -2013 0
1011 -2013 0
1719 -2013 0
1731 -2013 0
1305 -2025 0
1317 -2025 0
1743 -2025 0
1752 -2025 0
-2359 -2371 0
-2359 -2395 0
-2371 -2407 0
-2395 -2407 0
-2395 -2431 0
-2431 -2395 0
-2431 -2467 0
-2467 -2479 0
-2467 -2503 0
-2479 -2515 0
-2503 -2515 0
-5021 0
-5022 0
-5023 0
-5024 0
-5025 0
-5026 0
-5027 0
-1857 -1869 0
-1857 -1893 0
-1869 -1881 0
-1869 -1905 0
-1881 -1917 0
-1893 -1905 0
-1893 -1929 0
-1905 -1917 0
-1905 -1941 0
-1917 -1953 0
-1929 -1893 0
-1929 -1941 0
-1929 -1965 0
-1941 -1905 0
-1941 -1953 0
-1941 -1977 0
-1953 -1917 0
-1953 -1989 0
-1965 -1977 0
-1965 -2001 0
-1977 -1989 0
-1977 -2013 0
-1989 -2025 0
-2001 -2013 0
-2013 -2025 0
-4677 -4679 0
-4680 -4681 0
-4682 -4683 0
-4684 -4685 0
-4686 -4687 0
-4691 -4693 0
-4694 -4695 0
-4696 -4697 0
-4698 -4699 0
-4700 -4701 0
-4705 -4707 0
-4708 -4709 0
-4710 -4711 0
-4712 -4713 0
-4714 -4715 0
-4719 -4721 0
-4722 -4723 0
-4724 -4725 0
-4726 -4727 0
-4728 -4729 0
-4733 -4735 0
-4736 -4737 0
-4738 -4739 0
-4740 -4741 0
-4742 -4743 0
-4761 -4763 0
-4761 -4765 0
-4761 -4767 0
-4761 -4769 0
-4761 -4817 0
-4761 -4819 0
-4761 -4821 0
-4761 -4871 0
-4761 -4873 0
-4763 -4815 0
-4763 -4869 0
-4764 -4765 0
-4764 -4767 0
-4764 -4769 0
-4764 -4771 0
-4764 -4819 0
-4764 -4821 0
-4764 -4823 0
-4764 -4873 0
-4764 -4875 0
-4765 -4815 0
-4765 -4818 0
-4765 -4869 0
-4765 -4872 0
-4766 -4767 0
-4766 -4769 0
-4766 -4771 0
-4766 -4773 0
-4766 -4821 0
-4766 -4823 0
-4766 -4825 0
-4766 -4875 0
-4766 -4877 0
-4767 -4815 0
-4767 -4818 0
-4767 -4820 0
-4767 -4872 0
-4767 -4874 0
-4768 -4769 0
-4768 -4771 0
-4768 -4773 0
-4768 -4775 0
-4768 -4823 0
-4768 -4825 0
-4768 -4827 0
-4768 -4877 0
-4768 -4879 0
-4769 -4818 0
-4769 -4820 0
-4769 -4822 0
-4769 -4874 0
-4769 -4876 0
-4770 -4771 0
-4770 -4773 0
-4770 -4775 0
-4770 -4777 0
-4770 -4825 0
-4770 -4827 0
-4770 -4829 0
-4770 -4879 0
-4770 -4881 0
-4771 -4820 0
-4771 -4822 0
-4771 -4824 0
-4771 -4876 0
-4771 -4878 0
-4772 -4773 0
-4772 -4775 0
-4772 -4777 0
-4772 -4779 0
-4772 -4827 0
-4772 -4829 0
-4772 -4831 0
-4772 -4881 0
-4772 -4883 0
-4773 -4822 0
-4773 -4824 0
-4773 -4826 0
-4773 -4878 0
-4773 -4880 0
-4774 -4775 0
-4774 -4777 0
-4774 -4779 0
-4774 -4781 0
-4774 -4829 0
-4774 -4831 0
-4774 -4833 0
-4774 -4883 0
-4774 -4885 0
-4775 -4824 0
-4775 -4826 0
-4775 -4828 0
-4775 -4880 0
-4775 -4882 0
-4776 -4777 0
-4776 -4779 0
-4776 -4781 0
-4776 -4783 0
-4776 -4831 0
-4776 -4833 0
-4776 -4835 0
-4776 -4885 0
-4776 -4887 0
-4777 -4826 0
-4777 -4828 0
-4777 -4830 0
-4777 -4882 0
-4777 -4884 0
-4778 -4779 0
-4778 -4781 0
-4778 -4783 0
-4778 -4785 0
-4778 -4833 0
-4778 -4835 0
-4778 -4837 0
-4778 -4887 0
-4778 -4889 0
-4779 -4828 0
-4779 -4830 0
-4779 -4832 0
-4779 -4884 0
-4779 -4886 0
-4780 -4781 0
-4780 -4783 0
-4780 -4785 0
-4780 -4787 0
-4780 -4835 0
-4780 -4837 0
-4780 -4839 0
-4780 -4889 0
-4780 -4891 0
-4781 -4774 0
-4781 -4776 0
-4781 -4778 0
-4781 -4780 0
-4781 -4830 0
-4781 -4832 0
-4781 -4834 0
-4781 -4886 0
-4781 -4888 0
-4782 -4783 0
-4782 -4785 0
-4782 -4787 0
-4782 -4789 0
-4782 -4837 0
-4782 -4839 0
-4782 -4841 0
-4782 -4891 0
-4782 -4893 0
-4783 -4776 0
-4783 -4778 0
-4783 -4780 0
-4783 -4832 0
-4783 -4834 0
-4783 -4836 0
-4783 -4888 0
-4783 -4890 0
-4784 -4785 0
-4784 -4787 0
-4784 -4789 0
-4784 -4791 0
-4784 -4839 0
-4784 -4841 0
-4784 -4843 0
-4784 -4893 0
-4784 -4895 0
-4785 -4778 0
-4785 -4780 0
-4785 -4834 0
-4785 -4836 0
-4785 -4838 0
-4785 -4890 0
-4785 -4892 0
-4786 -4787 0
-4786 -4789 0
-4786 -4791 0
-4786 -4793 0
-4786 -4841 0
-4786 -4843 0
-4786 -4845 0
-4786 -4895 0
-4786 -4897 0
-4787 -4780 0
-4787 -4836 0
-4787 -4838 0
-4787 -4840 0
-4787 -4892 0
-4787 -4894 0
-4788 -4789 0
-4788 -4791 0
-4788 -4793 0
-4788 -4795 0
-4788 -4843 0
-4788 -4845 0
-4788 -4847 0
-4788 -4897 0
-4788 -4899 0
-4789 -4838 0
-4789 -4840 0
-4789 -4842 0
-4789 -4894 0
-4789 -4896 0
-4790 -4791 0
-4790 -4793 0
-4790 -4795 0
-4790 -4797 0
-4790 -4845 0
-4790 -4847 0
-4790 -4849 0
-4790 -4899 0
-4790 -4901 0
-4791 -4840 0
-4791 -4842 0
-4791 -4844 0
-4791 -4896 0
-4791 -4898 0
-4792 -4793 0
-4792 -4795 0
-4792 -4797 0
-4792 -4799 0
-4792 -4847 0
-4792 -4849 0
-4792 -4851 0
-4792 -4901 0
-4792 -4903 0
-4793 -4842 0
-4793 -4844 0
-4793 -4846 0
-4793 -4898 0
-4793 -4900 0
-4794 -4795 0
-4794 -4797 0
-4794 -4799 0
-4794 -4801 0
-4794 -4849 0
-4794 -4851 0
-4794 -4853 0
-4794 -4903 0
-4794 -4905 0
-4795 -4844 0
-4795 -4846 0
-4795 -4848 0
-4795 -4900 0
-4795 -4902 0
-4796 -4797 0
-4796 -4799 0
-4796 -4801 0
-4796 -4803 0
-4796 -4851 0
-4796 -4853 0
-4796 -4855 0
-4796 -4905 0
-4796 -4907 0
-4797 -4846 0
-4797 -4848 0
-4797 -4850 0
-4797 -4902 0
-4797 -4904 0
-4798 -4799 0
-4798 -4801 0
-4798 -4803 0
-4798 -4805 0
-4798 -4853 0
-4798 -4855 0
-4798 -4857 0
-4798 -4907 0
-4798 -4909 0
-4799 -4848 0
-4799 -4850 0
-4799 -4852 0
-4799 -4904 0
-4799 -4906 0
-4800 -4801 0
-4800 -4803 0
-4800 -4805 0
-4800 -4807 0
-4800 -4855 0
-4800 -4857 0
-4800 -4859 0
-4800 -4909 0
-4800 -4911 0
-4801 -4850 0
-4801 -4852 0
-4801 -4854 0
-4801 -4906 0
-4801 -4908 0
-4802 -4803 0
-4802 -4805 0
-4802 -4807 0
-4802 -4809 0
-4802 -4857 0
-4802 -4859 0
-4802 -4861 0
-4802 -4911 0
-4802 -4913 0
-4803 -4852 0
-4803 -4854 0
-4803 -4856 0
-4803 -4908 0
-4803 -4910 0
-4804 -4805 0
-4804 -4807 0
-4804 -4809 0
-4804 -4811 0
-4804 -4859 0
-4804 -4861 0
-4804 -4863 0
-4804 -4913 0
-4804 -4915 0
-4805 -4854 0
-4805 -4856 0
-4805 -4858 0
-4805 -4910 0
-4805 -4912 0
-4806 -4807 0
-4806 -4809 0
-4806 -4811 0
-4806 -4861 0
-4806 -4863 0
-4806 -4865 0
-4806 -4915 0
-4806 -4917 0
-4807 -4856 0
-4807 -4858 0
-4807 -4860 0
-4807 -4912 0
-4807 -4914 0
-4808 -4809 0
-4808 -4811 0
-4808 -4863 0
-4808 -4865 0
-4808 -4917 0
-4808 -4919 0
-4809 -4858 0
-4809 -4860 0
-4809 -4862 0
-4809 -4914 0
-4809 -4916 0
-4810 -4811 0
-4810 -4865 0
-4810 -4919 0
-4811 -4860 0
-4811 -4862 0
-4811 -4864 0
-4811 -4916 0
-4811 -4918 0
-4815 -4763 0
-4815 -4765 0
-4815 -4767 0
-4815 -4817 0
-4815 -4819 0
-4815 -4821 0
-4815 -4823 0
-4815 -4871 0
-4815 -4873 0
-4815 -4875 0
-4817 -4869 0
-4818 -4765 0
-4818 -4767 0
-4818 -4769 0
-4818 -4819 0
-4818 -4821 0
-4818 -4823 0
-4818 -4825 0
-4818 -4873 0
-4818 -4875 0
-4818 -4877 0
-4819 -4869 0
-4819 -4872 0
-4820 -4767 0
-4820 -4769 0
-4820 -4771 0
-4820 -4821 0
-4820 -4823 0
-4820 -4825 0
-4820 -4827 0
-4820 -4875 0
-4820 -4877 0
-4820 -4879 0
-4821 -4869 0
-4821 -4872 0
-4821 -4874 0
-4822 -4769 0
-4822 -4771 0
-4822 -4773 0
-4822 -4823 0
-4822 -4825 0
-4822 -4827 0
-4822 -4829 0
-4822 -4877 0
-4822 -4879 0
-4822 -4881 0
-4823 -4872 0
-4823 -4874 0
-4823 -4876 0
-4824 -4771 0
-4824 -4773 0
-4824 -4775 0
-4824 -4825 0
-4824 -4827 0
-4824 -4829 0
-4824 -4831 0
-4824 -4879 0
-4824 -4881 0
-4824 -4883 0
-4825 -4874 0
-4825 -4876 0
-4825 -4878 0
-4826 -4773 0
-4826 -4775 0
-4826 -4777 0
-4826 -4827 0
-4826 -4829 0
-4826 -4831 0
-4826 -4833 0
-4826 -4881 0
-4826 -4883 0
-4826 -4885 0
-4827 -4876 0
-4827 -4878 0
-4827 -4880 0
-4828 -4775 0
-4828 -4777 0
-4828 -4779 0
-4828 -4829 0
-4828 -4831 0
-4828 -4833 0
-4828 -4835 0
-4828 -4883 0
-4828 -4885 0
-4828 -4887 0
-4829 -4878 0
-4829 -4880 0
-4829 -4882 0
-4830 -4777 0
-4830 -4779 0
-4830 -4831 0
-4830 -4833 0
-4830 -4835 0
-4830 -4837 0
-4830 -4885 0
-4830 -4887 0
-4830 -4889 0
-4831 -4880 0
-4831 -4882 0
-4831 -4884 0
-4832 -4779 0
-4832 -4833 0
-4832 -4835 0
-4832 -4837 0
-4832 -4839 0
-4832 -4887 0
-4832 -4889 0
-4832 -4891 0
-4833 -4882 0
-4833 -4884 0
-4833 -4886 0
-4834 -4835 0
-4834 -4837 0
-4834 -4839 0
-4834 -4841 0
-4834 -4889 0
-4834 -4891 0
-4834 -4893 0
-4835 -4776 0
-4835 -4778 0
-4835 -4780 0
-4835 -4828 0
-4835 -4830 0
-4835 -4832 0
-4835 -4834 0
-4835 -4884 0
-4835 -4886 0
-4835 -4888 0
-4836 -4783 0
-4836 -4785 0
-4836 -4787 0
-4836 -4837 0
-4836 -4839 0
-4836 -4841 0
-4836 -4843 0
-4836 -4891 0
-4836 -4893 0
-4836 -4895 0
-4837 -4778 0
-4837 -4780 0
-4837 -4830 0
-4837 -4832 0
-4837 -4834 0
-4837 -4886 0
-4837 -4888 0
-4837 -4890 0
-4838 -4785 0
-4838 -4787 0
-4838 -4789 0
-4838 -4839 0
-4838 -4841 0
-4838 -4843 0
-4838 -4845 0
-4838 -4893 0
-4838 -4895 0
-4838 -4897 0
-4839 -4780 0
-4839 -4832 0
-4839 -4834 0
-4839 -4888 0
-4839 -4890 0
-4839 -4892 0
-4840 -4787 0
-4840 -4789 0
-4840 -4791 0
-4840 -4841 0
-4840 -4843 0
-4840 -4845 0
-4840 -4847 0
-4840 -4895 0
-4840 -4897 0
-4840 -4899 0
-4841 -4834 0
-4841 -4890 0
-4841 -4892 0
-4841 -4894 0
-4842 -4789 0
-4842 -4791 0
-4842 -4793 0
-4842 -4843 0
-4842 -4845 0
-4842 -4847 0
-4842 -4849 0
-4842 -4897 0
-4842 -4899 0
-4842 -4901 0
-4843 -4892 0
-4843 -4894 0
-4843 -4896 0
-4844 -4791 0
-4844 -4793 0
-4844 -4795 0
-4844 -4845 0
-4844 -4847 0
-4844 -4849 0
-4844 -4851 0
-4844 -4899 0
-4844 -4901 0
-4844 -4903 0
-4845 -4894 0
-4845 -4896 0
-4845 -4898 0
-4846 -4793 0
-4846 -4795 0
-4846 -4797 0
-4846 -4847 0
-4846 -4849 0
-4846 -4851 0
-4846 -4853 0
-4846 -4901 0
-4846 -4903 0
-4846 -4905 0
-4847 -4896 0
-4847 -4898 0
-4847 -4900 0
-4848 -4795 0
-4848 -4797 0
-4848 -4799 0
-4848 -4849 0
-4848 -4851 0
-4848 -4853 0
-4848 -4855 0
-4848 -4903 0
-4848 -4905 0
-4848 -4907 0
-4849 -4898 0
-4849 -4900 0
-4849 -4902 0
-4850 -4797 0
-4850 -4799 0
-4850 -4801 0
-4850 -4851 0
-4850 -4853 0
-4850 -4855 0
-4850 -4857 0
-4850 -4905 0
-4850 -4907 0
-4850 -4909 0
-4851 -4900 0
-4851 -4902 0
-4851 -4904 0
-4852 -4799 0
-4852 -4801 0
-4852 -4803 0
-4852 -4853 0
-4852 -4855 0
-4852 -4857 0
-4852 -4859 0
-4852 -4907 0
-4852 -4909 0
-4852 -4911 0
-4853 -4902 0
-4853 -4904 0
-4853 -4906 0
-4854 -4801 0
-4854 -4803 0
-4854 -4805 0
-4854 -4855 0
-4854 -4857 0
-4854 -4859 0
-4854 -4861 0
-4854 -4909 0
-4854 -4911 0
-4854 -4913 0
-4855 -4904 0
-4855 -4906 0
-4855 -4908 0
-4856 -4803 0
-4856 -4805 0
-4856 -4807 0
-4856 -4857 0
-4856 -4859 0
-4856 -4861 0
-4856 -4863 0
-4856 -4911 0
-4856 -4913 0
-4856 -4915 0
-4857 -4906 0
-4857 -4908 0
-4857 -4910 0
-4858 -4805 0
-4858 -4807 0
-4858 -4809 0
-4858 -4859 0
-4858 -4861 0
-4858 -4863 0
-4858 -4865 0
-4858 -4913 0
-4858 -4915 0
-4858 -4917 0
-4859 -4908 0
-4859 -4910 0
-4859 -4912 0
-4860 -4807 0
-4860 -4809 0
-4860 -4811 0
-4860 -4861 0
-4860 -4863 0
-4860 -4865 0
-4860 -4915 0
-4860 -4917 0
-4860 -4919 0
-4861 -4910 0
-4861 -4912 0
-4861 -4914 0
-4862 -4809 0
-4862 -4811 0
-4862 -4863 0
-4862 -4865 0
-4862 -4917 0
-4862 -4919 0
-4863 -4912 0
-4863 -4914 0
-4863 -4916 0
-4864 -4811 0
-4864 -4865 0
-4864 -4919 0
-4865 -4914 0
-4865 -4916 0
-4865 -4918 0
-4869 -4763 0
-4869 -4765 0
-4869 -4817 0
-4869 -4819 0
-4869 -4821 0
-4869 -4871 0
-4869 -4873 0
-4869 -4875 0
-4869 -4877 0
-4872 -4765 0
-4872 -4767 0
-4872 -4819 0
-4872 -4821 0
-4872 -4823 0
-4872 -4873 0
-4872 -4875 0
-4872 -4877 0
-4872 -4879 0
-4874 -4767 0
-4874 -4769 0
-4874 -4821 0
-4874 -4823 0
-4874 -4825 0
-4874 -4875 0
-4874 -4877 0
-4874 -4879 0
-4874 -4881 0
-4876 -4769 0
-4876 -4771 0
-4876 -4823 0
-4876 -4825 0
-4876 -4827 0
-4876 -4877 0
-4876 -4879 0
-4876 -4881 0
-4876 -4883 0
-4878 -4771 0
-4878 -4773 0
-4878 -4825 0
-4878 -4827 0
-4878 -4829 0
-4878 -4879 0
-4878 -4881 0
-4878 -4883 0
-4878 -4885 0
-4880 -4773 0
-4880 -4775 0
-4880 -4827 0
-4880 -4829 0
-4880 -4831 0
-4880 -4881 0
-4880 -4883 0
-4880 -4885 0
-4880 -4887 0
-4882 -4775 0
-4882 -4777 0
-4882 -4829 0
-4882 -4831 0
-4882 -4833 0
-4882 -4883 0
-4882 -4885 0
-4882 -4887 0
-4882 -4889 0
-4884 -4777 0
-4884 -4779 0
-4884 -4831 0
-4884 -4833 0
-4884 -4885 0
-4884 -4887 0
-4884 -4889 0
-4884 -4891 0
-4886 -4779 0
-4886 -4833 0
-4886 -4887 0
-4886 -4889 0
-4886 -4891 0
-4886 -4893 0
-4888 -4889 0
-4888 -4891 0
-4888 -4893 0
-4888 -4895 0
-4889 -4778 0
-4889 -4780 0
-4889 -4830 0
-4889 -4832 0
-4889 -4834 0
-4889 -4882 0
-4889 -4884 0
-4889 -4886 0
-4889 -4888 0
-4890 -4783 0
-4890 -4785 0
-4890 -4837 0
-4890 -4839 0
-4890 -4841 0
-4890 -4891 0
-4890 -4893 0
-4890 -4895 0
-4890 -4897 0
-4891 -4780 0
-4891 -4832 0
-4891 -4834 0
-4891 -4884 0
-4891 -4886 0
-4891 -4888 0
-4892 -4785 0
-4892 -4787 0
-4892 -4839 0
-4892 -4841 0
-4892 -4843 0
-4892 -4893 0
-4892 -4895 0
-4892 -4897 0
-4892 -4899 0
-4893 -4834 0
-4893 -4886 0
-4893 -4888 0
-4894 -4787 0
-4894 -4789 0
-4894 -4841 0
-4894 -4843 0
-4894 -4845 0
-4894 -4895 0
-4894 -4897 0
-4894 -4899 0
-4894 -4901 0
-4895 -4888 0
-4896 -4789 0
-4896 -4791 0
-4896 -4843 0
-4896 -4845 0
-4896 -4847 0
-4896 -4897 0
-4896 -4899 0
-4896 -4901 0
-4896 -4903 0
-4898 -4791 0
-4898 -4793 0
-4898 -4845 0
-4898 -4847 0
-4898 -4849 0
-4898 -4899 0
-4898 -4901 0
-4898 -4903 0
-4898 -4905 0
-4900 -4793 0
-4900 -4795 0
-4900 -4847 0
-4900 -4849 0
-4900 -4851 0
-4900 -4901 0
-4900 -4903 0
-4900 -4905 0
-4900 -4907 0
-4902 -4795 0
-4902 -4797 0
-4902 -4849 0
-4902 -4851 0
-4902 -4853 0
-4902 -4903 0
-4902 -4905 0
-4902 -4907 0
-4902 -4909 0
-4904 -4797 0
-4904 -4799 0
-4904 -4851 0
-4904 -4853 0
-4904 -4855 0
-4904 -4905 0
-4904 -4907 0
-4904 -4909 0
-4904 -4911 0
-4906 -4799 0
-4906 -4801 0
-4906 -4853 0
-4906 -4855 0
-4906 -4857 0
-4906 -4907 0
-4906 -4909 0
-4906 -4911 0
-4906 -4913 0
-4908 -4801 0
-4908 -4803 0
-4908 -4855 0
-4908 -4857 0
-4908 -4859 0
-4908 -4909 0
-4908 -4911 0
-4908 -4913 0
-4908 -4915 0
-4910 -4803 0
-4910 -4805 0
-4910 -4857 0
-4910 -4859 0
-4910 -4861 0
-4910 -4911 0
-4910 -4913 0
-4910 -4915 0
-4910 -4917 0
-4912 -4805 0
-4912 -4807 0
-4912 -4859 0
-4912 -4861 0
-4912 -4863 0
-4912 -4913 0
-4912 -4915 0
-4912 -4917 0
-4912 -4919 0
-4914 -4807 0
-4914 -4809 0
-4914 -4861 0
-4914 -4863 0
-4914 -4865 0
-4914 -4915 0
-4914 -4917 0
-4914 -4919 0
-4916 -4809 0
-4916 -4811 0
-4916 -4863 0
-4916 -4865 0
-4916 -4917 0
-4916 -4919 0
-4918 -4811 0
-4918 -4865 0
-4918 -4919 0
-4937 -4939 0
-4940 -4941 0
-4942 -4943 0
-4944 -4945 0
-4946 -4947 0
-4951 -4953 0
-4954 -4955 0
-4956 -4957 0
-4958 -4959 0
-4960 -4961 0
-4965 -4967 0
-4968 -4969 0
-4970 -4971 0
-4972 -4973 0
-4974 -4975 0
-4979 -4981 0
-4982 -4983 0
-4984 -4985 0
-4986 -4987 0
-4988 -4989 0
-4993 -4995 0
-4996 -4997 0
-4998 -4999 0
-5000 -5001 0
-5002 -5003 0
-4677 -4680 0
-4677 -4682 0
-4679 -4680 0
-4679 -4682 0
-4679 -4684 0
-4681 -4682 0
-4681 -4684 0
-4681 -4686 0
-4683 -4684 0
-4683 -4686 0
-4683 -4688 0
-4685 -4686 0
-4685 -4688 0
-4685 -4690 0
-4687 -4688 0
-4687 -4690 0
-4691 -4694 0
-4691 -4696 0
-4693 -4694 0
-4693 -4696 0
-4693 -4698 0
-4695 -4696 0
-4695 -4698 0
-4695 -4700 0
-4697 -4698 0
-4697 -4700 0
-4697 -4702 0
-4699 -4700 0
-4699 -4702 0
-4699 -4704 0
-4701 -4702 0
-4701 -4704 0
-4705 -4708 0
-4705 -4710 0
-4707 -4708 0
-4707 -4710 0
-4707 -4712 0
-4709 -4710 0
-4709 -4712 0
-4709 -4714 0
-4711 -4712 0
-4711 -4714 0
-4711 -4716 0
-4713 -4714 0
-4713 -4716 0
-4713 -4718 0
-4715 -4716 0
-4715 -4718 0
-4719 -4722 0
-4719 -4724 0
-4721 -4722 0
-4721 -4724 0
-4721 -4726 0
-4723 -4724 0
-4723 -4726 0
-4723 -4728 0
-4725 -4726 0
-4725 -4728 0
-4725 -4730 0
-4727 -4728 0
-4727 -4730 0
-4727 -4732 0
-4729 -4730 0
-4729 -4732 0
-4733 -4736 0
-4733 -4738 0
-4735 -4736 0
-4735 -4738 0
-4735 -4740 0
-4737 -4738 0
-4737 -4740 0
-4737 -4742 0
-4739 -4740 0
-4739 -4742 0
-4739 -4744 0
-4741 -4742 0
-4741 -4744 0
-4741 -4746 0
-4743 -4744 0
-4743 -4746 0
-4761 -4764 0
-4763 -4764 0
-4763 -4766 0
-4765 -4766 0
-4765 -4768 0
-4767 -4768 0
-4767 -4770 0
-4769 -4770 0
-4769 -4772 0
-4771 -4772 0
-4771 -4774 0
-4773 -4774 0
-4773 -4776 0
-4775 -4776 0
-4775 -4778 0
-4777 -4778 0
-4777 -4780 0
-4779 -4780 0
-4779 -4782 0
-4781 -4782 0
-4781 -4784 0
-4783 -4784 0
-4783 -4786 0
-4785 -4786 0
-4785 -4788 0
-4787 -4788 0
-4787 -4790 0
-4789 -4790 0
-4789 -4792 0
-4791 -4792 0
-4791 -4794 0
-4793 -4794 0
-4793 -4796 0
-4795 -4796 0
-4795 -4798 0
-4797 -4798 0
-4797 -4800 0
-4799 -4800 0
-4799 -4802 0
-4801 -4802 0
-4801 -4804 0
-4803 -4804 0
-4803 -4806 0
-4805 -4806 0
-4805 -4808 0
-4807 -4808 0
-4807 -4810 0
-4809 -4810 0
-4809 -4812 0
-4811 -4812 0
-4811 -4814 0
-4815 -4818 0
-4817 -4818 0
-4817 -4820 0
-4819 -4820 0
-4819 -4822 0
-4821 -4822 0
-4821 -4824 0
-4823 -4824 0
-4823 -4826 0
-4825 -4826 0
-4825 -4828 0
-4827 -4828 0
-4827 -4830 0
-4829 -4830 0
-4829 -4832 0
-4831 -4832 0
-4831 -4834 0
-4833 -4834 0
-4833 -4836 0
-4835 -4836 0
-4835 -4838 0
-4837 -4838 0
-4837 -4840 0
-4839 -4840 0
-4839 -4842 0
-4841 -4842 0
-4841 -4844 0
-4843 -4844 0
-4843 -4846 0
-4845 -4846 0
-4845 -4848 0
-4847 -4848 0
-4847 -4850 0
-4849 -4850 0
-4849 -4852 0
-4851 -4852 0
-4851 -4854 0
-4853 -4854 0
-4853 -4856 0
-4855 -4856 0
-4855 -4858 0
-4857 -4858 0
-4857 -4860 0
-4859 -4860 0
-4859 -4862 0
-4861 -4862 0
-4861 -4864 0
-4863 -4864 0
-4863 -4866 0
-4865 -4866 0
-4865 -4868 0
-4869 -4872 0
-4871 -4872 0
-4871 -4874 0
-4873 -4874 0
-4873 -4876 0
-4875 -4876 0
-4875 -4878 0
-4877 -4878 0
-4877 -4880 0
-4879 -4880 0
-4879 -4882 0
-4881 -4882 0
-4881 -4884 0
-4883 -4884 0
-4883 -4886 0
-4885 -4886 0
-4885 -4888 0
-4887 -4888 0
-4887 -4890 0
-4889 -4890 0
-4889 -4892 0
-4891 -4892 0
-4891 -4894 0
-4893 -4894 0
-4893 -4896 0
-4895 -4896 0
-4895 -4898 0
-4897 -4898 0
-4897 -4900 0
-4899 -4900 0
-4899 -4902 0
-4901 -4902 0
-4901 -4904 0
-4903 -4904 0
-4903 -4906 0
-4905 -4906 0
-4905 -4908 0
-4907 -4908 0
-4907 -4910 0
-4909 -4910 0
-4909 -4912 0
-4911 -4912 0
-4911 -4914 0
-4913 -4914 0
-4913 -4916 0
-4915 -4916 0
-4915 -4918 0
-4917 -4918 0
-4917 -4920 0
-4919 -4920 0
-4919 -4922 0
-4937 -4940 0
-4937 -4942 0
-4939 -4940 0
-4939 -4942 0
-4939 -4944 0
-4941 -4942 0
-4941 -4944 0
-4941 -4946 0
-4943 -4944 0
-4943 -4946 0
-4943 -4948 0
-4945 -4946 0
-4945 -4948 0
-4945 -4950 0
-4947 -4948 0
-4947 -4950 0
-4951 -4954 0
-4951 -4956 0
-4953 -4954 0
-4953 -4956 0
-4953 -4958 0
-4955 -4956 0
-4955 -4958 0
-4955 -4960 0
-4957 -4958 0
-4957 -4960 0
-4957 -4962 0
-4959 -4960 0
-4959 -4962 0
-4959 -4964 0
-4961 -4962 0
-4961 -4964 0
-4965 -4968 0
-4965 -4970 0
-4967 -4968 0
-4967 -4970 0
-4967 -4972 0
-4969 -4970 0
-4969 -4972 0
-4969 -4974 0
-4971 -4972 0
-4971 -4974 0
-4971 -4976 0
-4973 -4974 0
-4973 -4976 0
-4973 -4978 0
-4975 -4976 0
-4975 -4978 0
-4979 -4982 0
-4979 -4984 0
-4981 -4982 0
-4981 -4984 0
-4981 -4986 0
-4983 -4984 0
-4983 -4986 0
-4983 -4988 0
-4985 -4986 0
-4985 -4988 0
-4985 -4990 0
-4987 -4988 0
-4987 -4990 0
-4987 -4992 0
-4989 -4990 0
-4989 -4992 0
-4993 -4996 0
-4993 -4998 0
-4995 -4996 0
-4995 -4998 0
-4995 -5000 0
-4997 -4998 0
-4997 -5000 0
-4997 -5002 0
-4999 -5000 0
-4999 -5002 0
-4999 -5004 0
-5001 -5002 0
-5001 -5004 0
-5001 -5006 0
-5003 -5004 0
-5003 -5006 0
-453 -759 0
-501 -807 0
-549 -855 0
-597 -903 0
-645 -951 0
-693 -999 0
-741 -1047 0
-759 -1065 0
-807 -1113 0
-855 -1161 0
-903 -1209 0
-951 -1257 0
-999 -1305 0
-1047 -1353 0
-5028 0
-5029 0
-5030 0
-5031 0
-5032 0
-5033 0
-5034 0
-5035 0
-5036 0
-5037 0
-5038 0
-5039 0
-5040 0
-5041 0
-5042 0
-5043 0
-5044 0
-5045 0
-5046 0
-5047 0
-5048 0
-5049 0
-5050 0
-5051 0
-5052 0
-5053 0
-5054 0
-5055 0
-5056 0
-5057 0
-5058 0
-5059 0
-5060 0
-5061 0
-5062 0
-5063 0
-5064 0
-5065 0
-5066 0
-5067 0
